# opt in PBE-D3/def2tzvp

! M062X TightSCF def2-TZVP slowconv PModel cpcm(water) 

%tddft
 nroots 12
 maxdim 60
 triplets false
end

%output
Print[ P_Basis ] 2
Print[ P_MOs ] 1
end

%pal nprocs=16 end
%base "neutral"
*xyz 0 1
  C   -0.23364539440427     -0.98735152628088     -0.84773282505527
  C   -1.02767110642919      1.68942707754336     -0.62806803049625
  C   -1.60746445332909     -0.64537133626969     -0.89805403327819
  C   0.75237211097336      0.01632749144574     -0.66252812244628
  C   0.32264176234798      1.34840527028711     -0.54770055043061
  C   -2.00157891592881      0.69530106822817     -0.78844491708071
  O   -3.32565351266257      1.02805157571314     -0.81012388548239
  O   -2.60081034458877     -1.59237317610088     -1.02518659781967
  C   2.21100989484716     -0.34745874258546     -0.58413277700559
  C   2.84429756043200     -0.10162678989019      0.80338360407753
  N   2.27870365644594     -0.83354873286293      1.93737556833646
  H   0.06493040702076     -2.00327315009423     -1.13164697844048
  H   -1.34730625596179      2.72927348377886     -0.53898672168569
  H   1.06251390586273      2.13865726826407     -0.40421845828412
  H   -3.82427947538313      0.18465267342447     -0.86727723432820
  H   -2.44832128263309     -2.26170256206642     -0.29898469782720
  H   2.78477543669918      0.24326693052970     -1.31801610646968
  H   2.34018332626173     -1.40827638899108     -0.85086210988408
  H   3.91385481971695     -0.35758887016586      0.73122516569824
  H   2.79188255563150      0.97088112170735      1.04377169578348
  H   2.15189677940815     -1.83089365567171      1.74239756487284
  H   1.39022804593794     -0.44020821588623      2.26440628181045
  Cu  -0.37058157204127     -1.56276498478490      1.16984913122932
  Cu  -1.93477796141838     -2.97585744425151      2.10246930510010
*



$new_job

! M062X TightSCF def2-TZVP slowconv PModel cpcm(water) 

%tddft
 nroots 12
 maxdim 60
 triplets false
end

%output
Print[ P_Basis ] 2
Print[ P_MOs ] 1
end

%pal nprocs=16 end
%base "protonated"
*xyz 1 1
  C   -0.88416257855996     -1.68278740074542      0.01981041223918
  C   -0.32849300009850      0.95124170447599      0.83059819315456
  C   -1.93635792598135     -0.77751230862968      0.15374532378950
  C   0.43370589187214     -1.28912229278131      0.28847312233767
  C   0.73769462987678      0.01646263594628      0.68815392543955
  C   -1.66325504643015      0.55263058445612      0.57615888738157
  O   -3.21482217974102     -1.17752741052623     -0.07620261948603
  O   -2.76161584992584      1.33125502322169      0.80560050321137
  C   2.15686264312377      0.42403799156959      1.00454924174946
  C   2.76276211394759      1.48278342207174      0.08621288832306
  N   2.84620380289433      1.01790757308189     -1.33785737652931
  H   1.88822675687534      1.03022874442136     -1.80508257695447
  H   3.45005546954784      1.63977741014319     -1.89174909887800
  H   3.22900618188578      0.06533470990982     -1.41103562460073
  H   -1.11031123501203     -2.70312322838612     -0.29248872207083
  H   -0.14499656004835      1.94075243160862      1.25927205843605
  H   1.24122543255621     -2.01456140396591      0.17962999184162
  H   -3.81069476434219     -0.41751636248188      0.08432652139330
  H   -2.48927867098130      2.23171643669892      1.06679080470764
  H   2.79831319095347     -0.47035968944384      0.99567502049707
  H   2.20595406676136      0.84037816221870      2.02341079780934
  H   2.16671465049089      2.40471425388266      0.07472294756008
  H   3.78226726306253      1.72532565038454      0.40825470395076
  Cu  -0.44811082978192      1.13853923032209     -1.27364569863654
  Cu  0.19233000051549      1.51284175128813     -3.43552269150086
*



$new_job

! M062X TightSCF def2-TZVP slowconv PModel cpcm(water) 

%tddft
 nroots 12
 maxdim 60
 triplets false
end

%output
Print[ P_Basis ] 2
Print[ P_MOs ] 1
end

%pal nprocs=16 end
%base "deprotonated"
*xyz -1 1
  O   1.07693137461926     -3.17101816760735     -0.68580133064104
  O   2.94053581055090     -1.33253058403745     -0.67111136120413
  N   -2.87850396426089      1.38258441393047     -1.03876600781538
  C   -2.33519647369530     -0.02190864021129      1.01854038115330
  C   -0.91654740320482     -0.34150899515480      0.62062988486537
  C   -3.25563890658602      0.24164612093766     -0.19253609289305
  C   -0.57822605432950     -1.63528136546790      0.16906872043830
  C   0.08453795069104      0.63734867474251      0.62663036145473
  C   0.71343716706698     -1.91921599927202     -0.25152655682588
  C   1.39310816920703      0.35318628894309      0.20251328048443
  C   1.74282916100055     -0.93045498875656     -0.24706921581314
  H   -2.34730326363446      0.87012503508138      1.66689920505299
  H   -2.76485607203971     -0.85388605103417      1.60280717654608
  H   -4.28488275783106      0.40495700375837      0.16528649117666
  H   -3.27683737504813     -0.66023313286534     -0.82632303106789
  H   -1.33198631373302     -2.42783318158614      0.15145288545811
  H   -0.15736202172270      1.64495455103374      0.97501039192213
  H   2.16804109670366      1.12570222005714      0.21941569864751
  H   -1.90445777438536      1.25613072843521     -1.33436120860806
  H   -2.86747237244454      2.22969669094634     -0.46148973561632
  H   2.03818510247195     -3.05310218601977     -0.89441412813609
  Cu  6.53819217082332      0.82475741616526     -0.39692450935771
  Cu  4.52860495127083     -0.27244079775232     -0.56269109303099
*



$new_job

! M062X TightSCF def2-TZVP slowconv PModel cpcm(water) 

%tddft
 nroots 12
 maxdim 60
 triplets false
end

%output
Print[ P_Basis ] 2
Print[ P_MOs ] 1
end

%pal nprocs=16 end
%base "2x_deprotonated"
*xyz -2 1
  O   -1.68563516828733     -2.38808329051687      0.25957804752402
  O   -3.24388947660113     -0.19390759982063     -0.33193038720620
  N   3.08185828670686     -0.75615588995838     -1.22892942333943
  C   2.30009333047954      0.46741579098789      0.86904147712968
  C   0.82302678446089      0.30912619144841      0.59897304864293
  C   3.15708374750629      0.46728369999397     -0.41461673401217
  C   0.22558526485635     -0.96994004291786      0.57722330260574
  C   0.01977966089033      1.41507013899769      0.29677189149050
  C   -1.13476011820555     -1.18032839500135      0.26813248050428
  C   -1.34214101344633      1.24602576919605     -0.01870159969783
  C   -1.95632117735283     -0.02166487893373     -0.04524036442153
  H   2.48957360061113      1.41405608693471      1.40471136385760
  H   2.65701911374579     -0.34844465678219      1.52167631277656
  H   4.21389847436717      0.63654145763836     -0.14987222284123
  H   2.84625443246108      1.31583290257210     -1.04684303435049
  H   0.83247475817601     -1.84981740265425      0.82098727453464
  H   0.45307851296639      2.42019825625789      0.30864789756667
  H   -1.96332262451219      2.12002338883087     -0.24383229098337
  H   2.08952956032529     -0.96817007413991     -1.38453660307137
  H   3.42604578163279     -1.54146774097460     -0.66667732036529
  Cu  -3.66300257120509     -2.17591275329718     -0.21543915190417
  Cu  -5.45201835525750     -3.63279822083500     -0.41441240214357
*



$new_job

! M062X TightSCF def2-TZVP slowconv PModel cpcm(water) 

%tddft
 nroots 12
 maxdim 60
 triplets false
end

%output
Print[ P_Basis ] 2
Print[ P_MOs ] 1
end

%pal nprocs=16 end
%base "zwitterione"
*xyz 0 1
  O   2.00076932120825     -2.87691483319933     -0.19588327019587
  C   1.57849735655581     -1.57673623104270     -0.30381332186392
  C   0.22641616856914     -1.35795535426198     -0.55956637949910
  C   -0.30297034895940     -0.06295889482644     -0.69471832067789
  C   -1.78238602948989      0.14228450069040     -0.91348130001138
  C   -2.58313787338961      0.04719821030108      0.38474210847264
  N   -2.09966538469790      1.08136728576209      1.36186354284823
  H   -2.51314534706538      0.95404878850245      2.29440431748864
  H   -1.07090923297093      1.02201963437267      1.44990497715369
  H   -2.32356631527589      2.03420178450978      1.04261980501078
  C   0.57425521330352      1.02128523741901     -0.55884954179794
  C   1.93270748543873      0.81359394758012     -0.29862597140771
  C   2.48969499966498     -0.47691646779970     -0.16195101906542
  O   3.78284719897882     -0.62946514985738      0.08259850902936
  H   2.99015423471338     -2.87740930369838     -0.02813772667437
  H   -0.42611468482637     -2.23014793440367     -0.65969756208096
  H   -1.96689772389318      1.12401616841311     -1.37842450444969
  H   -2.19102811516405     -0.61967799741638     -1.59428691267428
  H   -3.65362306376510      0.22659994401393      0.22913768502716
  H   -2.44440275667936     -0.92683888896339      0.86979051034867
  H   0.19673685267902      2.04157242484419     -0.67163370510277
  H   2.60943812508310      1.66607792023117     -0.20050030237607
  Cu  5.98725417277871     -4.16797993535604      0.30791607564922
  Cu  4.86280245338159     -2.18252436293257      0.20358933170200
*
