! PBE D3 def2-TZVP opt numfreq PModel NOAUTOSTART cpcm(water)
%pal nprocs=16 end
%geom maxiter=150 end
%base "neutral"
*xyz 2 2
  C   -0.02639597248847     -0.90517796266393     -0.43184054588191
  C   -1.11825928286354      1.68209492217419     -0.03936020082340
  C   -1.36583065427767     -0.76525040310070     -0.07213716482226
  C   0.77280483089420      0.22527439541304     -0.59739301989842
  C   0.20631797487494      1.52019674057996     -0.38887355709273
  C   -1.92788753350553      0.54651563828646      0.12653631877891
  O   -3.20832374906143      0.69229298608039      0.46510118453981
  O   -2.22596798102319     -1.77476393855277      0.11130852394627
  C   2.21702516978162      0.10415183448507     -0.95231329662486
  C   3.17068915589030      0.29939373801542      0.25516810973840
  N   3.10003534996914     -0.80589282543427      1.23741360941648
  H   0.38250670985600     -1.90544807710248     -0.59142741036636
  H   -1.55796752606683      2.66802997171544      0.11173534471897
  H   0.84322015318184      2.39735033574682     -0.51579614791950
  H   -3.63985008231457     -0.18750850211228      0.54802808702587
  H   -1.79428341138877     -2.64211116922712     -0.03552459526279
  H   2.48608277791155      0.88963150638421     -1.67573117969824
  H   2.42589030362109     -0.87240410423801     -1.41255501748185
  H   4.19850360935702      0.34737801193939     -0.12550697336591
  H   2.95029522299754      1.23811172126228      0.77794736562831
  H   3.24625121363955     -1.70729578111604      0.76638546403165
  H   2.17042417045798     -0.85282145551053      1.67148226722800
  Cu  4.40112353655722     -0.70092743802454      2.65204366118555
*

$new_job

! PBE D3 def2-TZVP opt numfreq PModel NOAUTOSTART cpcm(water)
%pal nprocs=16 end
%geom maxiter=150 end
%base "protonated"
*xyz 3 2
  C   1.16559285747728      1.55697052073852     -0.57032963932218
  C   0.01360717165909     -0.74762324977527      0.66007570126979
  C   1.95977739165510      0.40238209254130     -0.33771214349667
  C   -0.19763184741512      1.53358120819214     -0.19423708575033
  C   -0.77628892486065      0.37109400808475      0.43357085861951
  C   1.35982897243829     -0.76863020921769      0.27581695116914
  O   3.24523707617432      0.30207660882692     -0.60137019295972
  O   2.07878287529615     -1.85543624467326      0.49262767005410
  C   -2.21431031135744      0.40602400474423      0.86601661192806
  C   -3.11121646284825     -0.66941145936604      0.25610698581543
  N   -3.38578372656805     -0.41728092451662     -1.19807378378578
  H   -2.53009821937169     -0.44554757744163     -1.77044490471358
  H   -4.02481406642429     -1.13062306677807     -1.57663550672166
  H   -3.82807511357023      0.50137174416332     -1.34712476349903
  H   1.65386305327011      2.48971939724463     -0.86923056555753
  H   -0.39139846593393     -1.63772048310217      1.14381113270881
  H   -0.77062383401630      2.46487434201858     -0.20946144112691
  H   3.62743998267138      1.12517414859197     -0.98256039316595
  H   3.00470734611303     -1.74510264772489      0.17658126561000
  H   -2.64292803251375      1.40065035989055      0.67980794846833
  H   -2.24284158796405      0.24221049250256      1.95646813278132
  H   -2.67175367780056     -1.67100847437314      0.32772447883205
  H   -4.08317041562210     -0.67106482755094      0.76110582077800
  Cu  -0.01790731148827      1.15208882498025     -2.24115325893520
*

$new_job

! PBE D3 def2-TZVP opt numfreq PModel NOAUTOSTART cpcm(water)
%pal nprocs=16 end
%geom maxiter=150 end
%base "deprotonated"
*xyz 1 2
  O   2.45762335206850     -1.85546703559623     -0.02277805399421
  O   3.46418617834316      0.55659877269410     -0.31818759483667
  N   -4.26940782884356     -0.20563736192285     -0.46027902138424
  C   -2.03460448960220     -0.00685702774607      0.65630320681087
  C   -0.56092291683618      0.14279972065544      0.42580121957325
  C   -2.80529323786303     -0.05562706658098     -0.67694017449953
  C   0.25745477121413     -0.98784366519361      0.32937521643653
  C   -0.00096551427296      1.44741746318128      0.25860798057946
  C   1.61320425241315     -0.82365548413538      0.07618794687251
  C   1.33734271491025      1.63624003218835      0.00962458958063
  C   2.21800431431120      0.50560211419292     -0.09547802881727
  H   -2.41253740586068      0.84293808740203      1.24665157434392
  H   -2.23790527410468     -0.93301946497813      1.21525265485004
  H   -2.46302573718483     -0.90254179904350     -1.28521128130409
  H   -2.63890189482234      0.86525047460938     -1.25025412224997
  H   -0.15815431319541     -1.98942628127378      0.45730757299259
  H   -0.66772044905675      2.30865680177918      0.34141090807057
  H   1.76324130857083      2.63400885624101     -0.10854069982945
  H   -4.61363453889000      0.58031412181075      0.10407910117304
  H   -4.44679817207795     -1.04841619464325      0.09967914034858
  H   3.33875283501957     -1.42432795064755     -0.20149658280313
  Cu  -5.35686879924020     -0.32183178699309     -2.03557123391342
*

$new_job

! PBE D3 def2-TZVP opt numfreq PModel NOAUTOSTART cpcm(water)
%pal nprocs=16 end
%geom maxiter=150 end
%base "2x_deprotonated"
*xyz 0 2
  O   2.52915047689624     -1.39147043036039     -0.06061555446000
  O   2.83267736668145      1.23014238975591      0.88046781115303
  N   -2.54891556629988     -0.17946207188847      1.45494748080185
  C   -2.18466835504737     -0.52959708322576     -1.02876463515704
  C   -0.77273193198747     -0.04308638928945     -0.80213162322952
  C   -3.14691439501691     -0.06724114812213      0.08635229824974
  C   0.27659521736412     -0.93316401257969     -0.64691828403413
  C   -0.56502411028872      1.34649012619495     -0.48370107481297
  C   1.57499759082043     -0.56741152773795     -0.13784000393933
  C   0.61863985734893      1.75332889485106      0.18356636721655
  C   1.74999967110276      0.85284979394754      0.36005194107860
  H   -2.59785702075100     -0.16003987475720     -1.98176788128588
  H   -2.17574504335744     -1.62801369391205     -1.08269240809048
  H   -4.07768008558192     -0.65207695182824      0.03023691811129
  H   -3.40626821218604      0.99031030230960     -0.05425373452656
  H   0.11340998050494     -1.99497400469417     -0.85523785202737
  H   -1.32249918923028      2.08551325554476     -0.75894915793409
  H   0.79241669066430      2.81325122924371      0.38630177575818
  H   -2.35767443259974     -1.16270541350415      1.67498623567336
  H   -3.23508335275652      0.13721517545633      2.14592728030377
  Cu  -0.85849657527982      0.89031285359579      1.47418236815101
*

$new_job

! PBE D3 def2-TZVP opt numfreq PModel NOAUTOSTART cpcm(water)
%pal nprocs=16 end
%geom maxiter=150 end
%base "zwitterione"
*xyz 2 2
  O   2.63548032250141     -1.90839834477430      1.33171677302733
  C   1.83918638141335     -0.86032291864735      1.11601017813638
  C   0.47317264791654     -0.99669127560426      0.88404390013928
  C   -0.29697126007488      0.14710220833191      0.66514886608336
  C   -1.77102386632496      0.03295528773139      0.38265969661302
  C   -2.13854845749462      0.39303347851850     -1.05572575085966
  N   -1.49850769886383     -0.55074984576071     -2.03436302744426
  H   -1.73037477127999     -0.29274843295522     -3.00379498531565
  H   -0.47113648751625     -0.54214604397013     -1.95227099669997
  H   -1.81289115913036     -1.52109307438637     -1.88896744567510
  C   0.31599915597328      1.44021218113602      0.68155678396782
  C   1.66048779033832      1.60161076417718      0.90843779393715
  C   2.49729212121157      0.45461681059332      1.13716654375266
  O   3.74339163955836      0.48109925636505      1.35584920287350
  H   3.53732461743574     -1.50399717265987      1.46319159341486
  H   0.01671847354234     -1.98843126223286      0.87686827714078
  H   -2.12778298476032     -0.98194998349384      0.61101148123933
  H   -2.32882150042654      0.73190340836260      1.02595392708279
  H   -3.22103854830389      0.32505208596283     -1.21208875271522
  H   -1.79915179105429      1.39993705485006     -1.32657347555002
  H   -0.31489988990844      2.31605154778859      0.51318500624179
  H   2.12414089312246      2.58917081207959      0.92550346141291
  Cu  0.00119835612501     -2.58318947741211     -4.47119795480305
*
