! PBE D3 def2-TZVP opt numfreq PModel NOAUTOSTART cpcm(water)
%pal nprocs=16 end
%geom maxiter=150 end
%base "neutral"
*xyz 2 2
  C   -0.09973149989031     -0.93640895028676     -0.43275646781429
  C   -1.16431425224647      1.65996620464076      0.10116240969477
  C   -1.47291229179405     -0.78128418322180     -0.15809843723015
  C   0.73062655341467      0.17017456074279     -0.45346762280581
  C   0.17541728297606      1.47142845718860     -0.17152354524282
  C   -2.01607120924239      0.54426308087445      0.10946090135261
  O   -3.32146345840127      0.55266838475499      0.33643493164423
  O   -2.25117580360775     -1.84270600074325     -0.16196470732711
  C   2.18091518631776      0.05988863699450     -0.84248231380121
  C   3.21553833271854      0.34560573748439      0.26377995763381
  N   3.35827445501624     -0.77114992830214      1.26076169906696
  H   0.25956525232934     -1.93831288225483     -0.67336172472900
  H   -1.56422803499401      2.65813235016232      0.29012605471271
  H   0.83056239962680      2.34449382083632     -0.20540777151098
  H   -3.68870950898199      1.44820591040065      0.49844451673520
  H   -3.19242395662598     -1.61242749774630      0.01685685266892
  H   2.37835338852518      0.79918634548306     -1.63821574514796
  H   2.37999335280448     -0.92575821112770     -1.29019883030445
  H   4.19681998522107      0.49273320301348     -0.20403869765913
  H   2.97314911982827      1.26008119626598      0.82102236010740
  H   3.55395635603282     -1.64790757158963      0.75814067126543
  H   2.46580170537062     -0.92521420734685      1.74780600806636
  Cu2  4.75620522460237     -0.56523824922302      2.59386574462450
*

$new_job

! PBE D3 def2-TZVP opt numfreq PModel NOAUTOSTART cpcm(water)
%pal nprocs=16 end
%geom maxiter=150 end
%base "deprotonated"
*xyz 1 2
  O   2.27054711982522     -1.54535186213340      0.21712744827373
  O   2.79697614870138      0.95910868163265      0.78407817656150
  N   -2.78159857047263      0.42968436470313      1.28200042978719
  C   -2.28905785257304     -0.35799480303737     -1.09512830632639
  C   -0.83336910610524     -0.01510446270465     -0.91384371161466
  C   -2.92931177409031     -0.68469351742306      0.27237875557797
  C   0.10012177354785     -1.01106428490462     -0.60305908544411
  C   -0.46978557895796      1.37538207710640     -0.78690147083414
  C   1.34216648504833     -0.65679019373823     -0.07398330888289
  C   0.70118876174123      1.76217425608619     -0.09251590554295
  C   1.68959795310820      0.74787939173017      0.25763632249604
  H   -2.41501669487341     -1.24796761931412     -1.72962351661294
  H   -2.82840221508955      0.46826048313309     -1.58245870788837
  H   -2.43423121647364     -1.56444996229423      0.70450479585810
  H   -3.99511878275427     -0.92314259306791      0.14354563071678
  H   -0.14705676492294     -2.06757710097807     -0.72719818609238
  H   -1.11949005594417      2.13350781470995     -1.23384515616999
  H   1.00427350682675      2.80883845966143     -0.03055729407876
  H   -3.03897179402171      0.06921449875639      2.20703385618770
  H   -3.47021257840580      1.16359920262512      1.07798127255428
  H   3.02044267059459     -1.00859693762888      0.60459913303409
  Cu2  -0.96941478670885      1.26041798508001      1.17092742344019
*

$new_job

! PBE D3 def2-TZVP opt numfreq PModel NOAUTOSTART cpcm(water)
%pal nprocs=16 end
%geom maxiter=150 end
%base "2x_deprotonated"
*xyz 0 2
  O   2.40386288539202     -1.42707952010735      0.12653872555214
  O   2.79890511261258      1.27296175361264      0.86874643433560
  N   -2.44641908744850     -0.29611420182132      1.43466083579476
  C   -2.20970847505583     -0.45331952805550     -1.08553296777596
  C   -0.79079700376041      0.00761721863489     -0.84711791228808
  C   -3.12559824370146     -0.09608885029799      0.10893738325345
  C   0.20243453113486     -0.91804114474024     -0.56925923974605
  C   -0.56193051363717      1.39998768731227     -0.56546997301692
  C   1.51372247592659     -0.58093186403022     -0.02897219124065
  C   0.58576929667829      1.79577908713229      0.17857539368487
  C   1.73064109240766      0.88401961322900      0.39036484999335
  H   -2.65704389587806      0.00338113578515     -1.98350368418451
  H   -2.21322151577082     -1.54197377700343     -1.24461950885868
  H   -4.05542004612029     -0.68633709760263      0.06027280347353
  H   -3.40001889639515      0.96653567797939      0.06564389589536
  H   0.02048910412102     -1.98268838980113     -0.74437410232790
  H   -1.29281016579061      2.14677777011889     -0.88736638435600
  H   0.78291467039247      2.85539149572222      0.35667039963852
  H   -2.17202450454476     -1.27851825973403      1.54093901044090
  H   -3.10909226129709     -0.09713625924645      2.18860112746077
  Cu2  -0.76632597826526      0.81594887191353      1.42041337127151
*