# opt in PBE-D3/def2tzvp

! M062X TightSCF def2-TZVP slowconv PModel cpcm(water) 

%tddft
 nroots 12
 maxdim 60
 triplets false
end

%output
Print[ P_Basis ] 2
Print[ P_MOs ] 1
end

%pal nprocs=16 end
%base "neutral"
*xyz 0 1
  C   -0.11334494129279     -1.03166041195060     -0.46244924195465
  C   -1.04412401771700      1.56762266624798     -0.05995728330168
  C   -1.44030338292954     -0.82215333820713     -0.09456184012306
  C   0.77040434593836      0.04616638706563     -0.63837166116905
  C   0.28804890750347      1.34507540058950     -0.43101874475530
  C   -1.91057975702783      0.49067805035505      0.10987871816309
  O   -3.23421917419051      0.59968197760844      0.46595375193712
  O   -2.28114117168859     -1.89359001235006      0.06164182672224
  C   2.21610236029662     -0.20810576751910     -0.97839303210033
  C   3.06823701835158     -0.56369231425864      0.26019132382511
  N   3.16809037415329      0.47894727553754      1.28877794877594
  H   0.22798394906138     -2.05839503712956     -0.61671102249035
  H   -1.41853036504768      2.58273804951238      0.09611219539191
  H   0.95637087035374      2.19735341416070     -0.56806739854643
  H   -3.46365796983530      1.53974552377028      0.58553481165528
  H   -3.16189849852237     -1.54780742689413      0.30938824548984
  H   2.64931995314605      0.68527841837253     -1.45666326115211
  H   2.29324560931816     -1.03751833228586     -1.70086186515235
  H   2.65348193467706     -1.47045525367598      0.72987635113232
  H   4.08747482580694     -0.81458745284374     -0.07383091857779
  H   2.22387005297922      0.74185224602344      1.58887120508684
  H   3.55794707666574      1.32650593787133      0.86479789114340
*



$new_job

! M062X TightSCF def2-TZVP slowconv PModel cpcm(water) 

%tddft
 nroots 12
 maxdim 60
 triplets false
end

%output
Print[ P_Basis ] 2
Print[ P_MOs ] 1
end

%pal nprocs=16 end
%base "protonated"
*xyz 1 1
  C   -1.09729805197983     -1.61283281528588      0.24724281045880
  C   -0.14726188949321      1.01097285365106      0.37547306029930
  C   -1.95716487468804     -0.55617414523114     -0.04066691953685
  C   0.23422240054048     -1.36129539478476      0.59809330760051
  C   0.72420211613287     -0.05198293958872      0.66909182319326
  C   -1.47179539661067      0.76748083372475      0.02403247483498
  O   -3.25922328103353     -0.80345827208601     -0.37924145901448
  O   -2.38682724147471      1.74461666399888     -0.27313291931251
  C   2.16894605882182      0.22204361414584      1.01545294352572
  C   2.99862800960117      0.66180038180528     -0.18739863002251
  N   3.00134040976725     -0.40128151517580     -1.24959604711152
  H   2.03742029688537     -0.64652399805483     -1.52343420529399
  H   3.49953868509562     -0.09041317055026     -2.09421715478299
  H   3.45787389258436     -1.26332539968409     -0.91931828815209
  H   -1.48101836678009     -2.63329917080034      0.19751748176916
  H   0.20535622863000      2.04565401828734      0.42384783499526
  H   0.89751754432137     -2.19810595959379      0.82650666302151
  H   -3.69764663291833      0.05731675679277     -0.53438743238533
  H   -1.96924237590279      2.62303088856654     -0.19772896332813
  H   2.62385207444776     -0.67470493392516      1.46346855121117
  H   2.24448751089435      1.02907201524237      1.76009185553190
  H   2.58722793424890      1.56516243740488     -0.65426007663963
  H   4.04531794890988      0.84192225114107      0.08424528913845 
*



$new_job

! M062X TightSCF def2-TZVP slowconv PModel cpcm(water) 

%tddft
 nroots 12
 maxdim 60
 triplets false
end

%output
Print[ P_Basis ] 2
Print[ P_MOs ] 1
end

%pal nprocs=16 end
%base "deprotonated"
*xyz -1 1
  O   2.38664934776350     -1.82908237970919     -0.02736246502156
  O   3.27381811761539      0.52694801315679     -0.50104716237702
  N   -3.09739678654441      0.38914154943036     -1.33562441656540
  C   -2.17962520543252     -0.14435290383849      0.98112280369746
  C   -0.72952825486907      0.07748361690109      0.63220784740398
  C   -3.03523259076780     -0.57695637280214     -0.22835149331452
  C   0.14923850720903     -1.02580844196276      0.49629392984480
  C   -0.22372505439718      1.35556561781346      0.36919304275567
  C   1.46510313275629     -0.82205637130933      0.11787967903702
  C   1.11458569791968      1.56645495605175     -0.01549767887374
  C   2.01186691285937      0.48408961771762     -0.15809046442357
  H   -2.60905158672440      0.78355667947821      1.39587560503543
  H   -2.27351236925255     -0.91998202145795      1.76167244960407
  H   -4.06553569623025     -0.77978522669065      0.10640501215840
  H   -2.63610172952538     -1.52522860724966     -0.62541552898701
  H   -0.20833970621655     -2.04151724959145      0.69420687370926
  H   -0.88995353388385      2.21749987483451      0.47402490867983
  H   1.47784653256856      2.58098727687918     -0.20590598985807
  H   -2.13606082860391      0.64614248204889     -1.58665548686895
  H   -3.51405502822472      1.25817601752003     -0.98583319160425
  H   3.18124912198076     -1.26564412722027     -0.29669327403182
*



$new_job

! M062X TightSCF def2-TZVP slowconv PModel cpcm(water) 

%tddft
 nroots 12
 maxdim 60
 triplets false
end

%output
Print[ P_Basis ] 2
Print[ P_MOs ] 1
end

%pal nprocs=16 end
%base "2x_deprotonated"
*xyz -2 1
  O   -2.27044146034476     -2.03487695933698      0.25758858214362
  O   -3.36666034313099      0.45855513127212     -0.51757154294846
  N   2.95371195482559      0.30694702706989     -1.42382515352997
  C   2.14472215801514      0.04616248729810      0.97238548818300
  C   0.67913371056640      0.17809724635510      0.63524243204272
  C   2.98625216771313     -0.50783163592468     -0.19651421527908
  C   -0.16359688141115     -0.96142995149673      0.62118483952316
  C   0.12486119816817      1.40025912599071      0.24944320979275
  C   -1.53632995813944     -0.95506556084907      0.24757858896194
  C   -1.23557303642222      1.47318380250251     -0.12997096178708
  C   -2.11435175044802      0.35710903326682     -0.16025647797586
  H   2.55511253124155      1.03257945501469      1.25322609786926
  H   2.28898431077306     -0.62136589994459      1.84232284970052
  H   2.62021090745784     -1.51734441720487     -0.44853398103498
  H   4.03847562425690     -0.61634385649974      0.11485248166639
  H   0.25687341371924     -1.93273860013753      0.92018741879481
  H   0.74470352703832      2.30376041429633      0.24874830426851
  H   -1.66060438089323      2.44242492461126     -0.42324692092761
  H   3.37309016867010      1.21876320823977     -1.21175885328339
  H   1.96659013834434      0.52403602547689     -1.61197518618027
*



$new_job

! M062X TightSCF def2-TZVP slowconv PModel cpcm(water) 

%tddft
 nroots 12
 maxdim 60
 triplets false
end

%output
Print[ P_Basis ] 2
Print[ P_MOs ] 1
end

%pal nprocs=16 end
%base "zwitterione"
*xyz 0 1
  O   2.83622588126855     -2.20377572803185     -0.03437405418492
  C   2.02272870129354     -1.11707556315131     -0.21158238650166
  C   0.67580569861521     -1.20168754857973     -0.51313778925715
  C   -0.08156344332475     -0.01627439498896     -0.68657735282884
  C   -1.56867475174651     -0.09161761696458     -0.93357258534930
  C   -2.34406699303537     -0.38426964534671      0.35305848248143
  N   -2.02477283029475      0.67138459812777      1.37341625166575
  H   -2.31768936487614      0.40467815153986      2.32150897057174
  H   -1.00039882152761      0.83491206480195      1.37235173327012
  H   -2.47594368449305      1.56693805129839      1.14238862980392
  C   0.56654859098174      1.21682368133489     -0.53739654255149
  C   1.93732803325042      1.30413189128504     -0.23145596766393
  C   2.71958990930509      0.14011622236665     -0.05413813986038
  O   3.99012924905909      0.06621312238054      0.22771169736588
  H   3.70106187411308     -1.71844640410621      0.15839615971598
  H   0.20037952362172     -2.18152139260703     -0.61990857710370
  H   -1.93279483096871      0.85441813863310     -1.36528263365879
  H   -1.82015091710051     -0.89187596688154     -1.64666162725420
  H   -3.43080736439230     -0.38170375498926      0.20688945605659
  H   -2.03618889590783     -1.34189365937954      0.79006222415874
  H   -0.00873551244714      2.13717678244241     -0.67963706381644
  H   2.41591694860623      2.28230997081610     -0.13057588505935
*
