! PBE D3 def2-TZVP opt PModel NOAUTOSTART cpcm(water)
%pal nprocs=16 end
%geom maxiter=150 end
%base "3_M0003"
*xyz 0 2
O      2.113215   -2.327949    0.984763
C      1.728841   -1.119246    0.560103
C      0.470145   -0.849418    0.004571
C      0.122364    0.434510   -0.471769
C     -1.210138    0.654733   -1.118974
C     -2.394359    0.476399   -0.120911
N     -3.728611    0.469096   -0.699432
H     -4.744741    0.647119    0.093548
H     -3.965593    1.344633   -1.163480
H     -3.837240   -0.280893   -1.385454
C      1.069457    1.479133   -0.347320
C      2.299427    1.263778    0.219355
C      2.726309   -0.033318    0.708090
O      3.835258   -0.241248    1.234505
H      1.324584   -2.909073    1.031630
H     -0.211146   -1.699059   -0.264761
H     -1.243258    1.676613   -1.531255
H     -1.349167   -0.041753   -1.964636
H     -2.241012   -0.474188    0.413020
H     -2.324118    1.278193    0.626020
H      0.802405    2.472269   -0.718326
H      3.020841    2.070066    0.324006
Cu    -7.299264    1.661272   -2.707723
*
