! PBE D3 def2-TZVP opt PModel
%pal nprocs=16 end
%geom maxiter=150 end
%base "1_M0002"
*xyz 0 2
8       -2.031037000     -2.062449000     -0.049321000
8       -3.307150000      0.599768000     -0.503427000
7        2.925979000      0.077175000     -1.435707000
6        2.153620000      0.147371000      0.963706000
6        0.699293000      0.250785000      0.602187000
6        3.015942000     -0.544013000     -0.105473000
6       -0.084508000     -0.900396000      0.442535000
6        0.094415000      1.478147000      0.401001000
6       -1.458703000     -0.912270000      0.065928000
6       -1.251647000      1.527268000      0.034471000
6       -2.083157000      0.389278000     -0.155479000
1        2.560882000      1.148697000      1.155720000
1        2.243050000     -0.399729000      1.910689000
1        2.747056000     -1.602590000     -0.194985000
1        4.062616000     -0.511037000      0.216663000
1        0.376102000     -1.873851000      0.608721000
1        0.639013000      2.405862000      0.514153000
1       -1.706353000      2.504030000     -0.122715000
1        2.786392000      1.080241000     -1.306495000
1        2.003359000     -0.207406000     -1.803065000
Cu2     -4.049033804     -1.352143712     -0.447269780
*

$new_job
%pal nprocs=16 end
%geom maxiter=150 end
%base "2_M0001"
! PBE D3 def2-TZVP opt PModel NOAUTOSTART
*xyz 0 2
8       -2.053517000     -2.034373000      0.185438000
8       -3.299854000      0.572811000     -0.572818000
7        2.860805000     -0.833072000     -1.237455000
6        2.152337000      0.220042000      0.941851000
6        0.697822000      0.310851000      0.581319000
6        3.082832000      0.258048000     -0.280072000
6       -0.098603000     -0.842826000      0.551432000
6        0.112931000      1.512149000      0.227344000
6       -1.470338000     -0.883949000      0.171908000
6       -1.232297000      1.533165000     -0.145563000
6       -2.078509000      0.390321000     -0.200609000
1        2.404826000      1.051022000      1.612914000
1        2.339631000     -0.693917000      1.520319000
1        4.119799000      0.198321000      0.068402000
1        2.980176000      1.212058000     -0.809753000
1        0.351118000     -1.796109000      0.827513000
1        0.673739000      2.437076000      0.225255000
1       -1.673913000      2.489310000     -0.421814000
1        1.923336000     -0.670522000     -1.640807000
1        2.685580000     -1.690041000     -0.706467000
Cu2     -3.976296727     -1.290616666     -0.364036949
*

$new_job
%pal nprocs=16 end
%geom maxiter=150 end
%base "3_M0003"
! PBE D3 def2-TZVP opt PModel NOAUTOSTART
*xyz 0 2
8        2.114611000     -2.026864000      0.172957000
8        3.292629000      0.696394000      0.521424000
7       -3.095376000      0.385734000      1.278702000
6       -2.126657000     -0.018000000     -1.001073000
6       -0.676513000      0.160651000     -0.644025000
6       -2.962669000     -0.567884000      0.165257000
6        0.143654000     -0.954433000     -0.416033000
6       -0.118767000      1.415902000     -0.489614000
6        1.508733000     -0.902964000     -0.011849000
6        1.218352000      1.527451000     -0.102381000
6        2.084209000      0.428309000      0.158469000
1       -2.554110000      0.929990000     -1.351901000
1       -2.192610000     -0.710250000     -1.850145000
1       -2.524436000     -1.498260000      0.544364000
1       -3.968741000     -0.808396000     -0.194728000
1       -0.282247000     -1.949428000     -0.542024000
1       -0.697965000      2.315911000     -0.648574000
1        1.635879000      2.525772000      0.018248000
1       -2.148160000      0.757196000      1.442609000
1       -3.279933000     -0.153105000      2.123681000
Cu2      4.061927488     -1.093333637      0.698430045
*

$new_job
%pal nprocs=16 end
%geom maxiter=150 end
%base "4_M0006"
! PBE D3 def2-TZVP opt PModel NOAUTOSTART
*xyz 0 2
8       -2.005938000     -2.061962000      0.225043000
8       -3.326877000      0.482115000     -0.614452000
7        3.035492000     -1.020148000     -0.980444000
6        2.132501000      0.350235000      0.923363000
6        0.669325000      0.377497000      0.576988000
6        3.024104000      0.295567000     -0.327293000
6       -0.091260000     -0.799941000      0.579212000
6        0.045428000      1.550263000      0.190850000
6       -1.458698000     -0.894462000      0.188445000
6       -1.297297000      1.519725000     -0.189749000
6       -2.104671000      0.349258000     -0.223967000
1        2.373400000      1.255716000      1.495247000
1        2.354637000     -0.490875000      1.592252000
1        4.055070000      0.532204000     -0.043029000
1        2.706982000      1.054219000     -1.052586000
1        0.387655000     -1.729530000      0.886964000
1        0.576366000      2.492356000      0.166125000
1       -1.767071000      2.454022000     -0.492627000
1        3.130695000     -0.876369000     -1.984446000
1        2.079749000     -1.400785000     -0.896615000
Cu2     -3.516648349     -1.429562792     -0.375981286
*

$new_job
%pal nprocs=16 end
%geom maxiter=150 end
%base "5_M0005"
! PBE D3 def2-TZVP opt PModel NOAUTOSTART
*xyz 0 2
8        2.289029000     -2.042674000      0.054462000
8        3.516138000      0.665485000      0.348449000
7       -4.279682000     -0.192325000      0.379319000
6       -2.027849000      0.017064000     -0.649438000
6       -0.558856000      0.176640000     -0.393879000
6       -2.838915000     -0.021300000      0.651254000
6        0.269135000     -0.948151000     -0.273228000
6        0.017515000      1.424686000     -0.247608000
6        1.671806000     -0.912385000     -0.022880000
6        1.388411000      1.520479000     -0.000310000
6        2.271841000      0.411664000      0.121713000
1       -2.374330000      0.841684000     -1.286424000
1       -2.201129000     -0.899018000     -1.229379000
1       -2.700193000      0.907177000      1.216567000
1       -2.503115000     -0.843239000      1.293601000
1       -0.175601000     -1.937490000     -0.377355000
1       -0.567623000      2.331489000     -0.320954000
1        1.822526000      2.512975000      0.108810000
1       -4.388116000     -1.083697000     -0.104346000
1       -4.554502000      0.521729000     -0.292789000
Cu2      3.583535584     -0.951622487      0.385474497
*
