! PBE D3 def2-TZVP opt PModel
%pal nprocs=16 end
%geom maxiter=200 end
%base "1_M0001"
*xyz 0 2
  O         2.915711000000     -2.145336000000     -0.071780000000
  C         2.182078000000     -1.035316000000     -0.216318000000
  C         0.729710000000     -1.105456000000     -0.496832000000
  C        -0.009761000000      0.014983000000     -0.639845000000
  C        -1.496476000000     -0.059044000000     -0.905511000000
  C        -2.271812000000     -0.345994000000      0.408601000000
  N        -2.054248000000      0.710545000000      1.426609000000
  H        -2.600459000000      0.540476000000      2.259362000000
  H        -1.091500000000      0.765704000000      1.725095000000
  H        -2.317673000000      1.622921000000      1.083567000000
  C         0.660670000000      1.326672000000     -0.513475000000
  C         1.982081000000      1.393560000000     -0.260573000000
  C         2.770665000000      0.160014000000     -0.105508000000
  O         4.241447000000      0.249090000000      0.178348000000
  H         2.428299000000     -2.956218000000     -0.163779000000
  H         0.249945000000     -2.080013000000     -0.586611000000
  H        -1.854382000000      0.888174000000     -1.339070000000
  H        -1.703849000000     -0.854101000000     -1.640670000000
  H        -3.348370000000     -0.416589000000      0.171998000000
  H        -1.952718000000     -1.323610000000      0.810152000000
  H         0.082070000000      2.246096000000     -0.608310000000
  H         2.484339000000      2.350932000000     -0.223869000000
  Cu       -1.080544892553      1.611763038515      2.143969352640
  Cu       -2.881817975149      1.347702488076      2.742222031998
*

$new_job
%pal nprocs=16 end
%geom maxiter=200 end
%base "2_M0002"
! PBE D3 def2-TZVP opt PModel NOAUTOSTART
*xyz 0 2
  O         3.036782000000     -1.702535000000     -0.306303000000
  C         2.228842000000     -0.635493000000     -0.300185000000
  C         0.786021000000     -0.762563000000     -0.609398000000
  C        -0.028158000000      0.314784000000     -0.598195000000
  C        -1.507463000000      0.201663000000     -0.890934000000
  C        -2.321226000000      0.162624000000      0.430607000000
  N        -1.965618000000     -1.005658000000      1.272309000000
  H        -2.537300000000     -1.050369000000      2.104141000000
  H        -2.095244000000     -1.877224000000      0.779303000000
  H        -1.007543000000     -0.975567000000      1.588679000000
  C         0.550259000000      1.635478000000     -0.274342000000
  C         1.862765000000      1.755194000000      0.003516000000
  C         2.733302000000      0.568036000000     -0.009269000000
  O         4.193050000000      0.713740000000      0.306352000000
  H         2.607585000000     -2.522971000000     -0.521281000000
  H         0.379714000000     -1.746234000000     -0.843910000000
  H        -1.820982000000      1.072411000000     -1.489556000000
  H        -1.729404000000     -0.699520000000     -1.484919000000
  H        -2.142203000000      1.096347000000      0.991942000000
  H        -3.396004000000      0.123931000000      0.178914000000
  H        -0.093763000000      2.515081000000     -0.246660000000
  H         2.297513000000      2.729453000000      0.183049000000
  Cu       -2.654786803463     -2.163068779246      2.445333047585
  Cu       -0.809577401906     -2.071736623941      2.004705083689
*

$new_job
! PBE D3 def2-TZVP opt PModel NOAUTOSTART
%pal nprocs=16 end
%geom maxiter=200 end
%base "3_M0003"
*xyz 0 2
  O         2.113214530094     -2.327948547534      0.984762778514
  C         1.728841263846     -1.119246483335      0.560102850373
  C         0.470144716377     -0.849417791061      0.004570560001
  C         0.122363610606      0.434510343804     -0.471768654441
  C        -1.210138144405      0.654732802552     -1.118973806900
  C        -2.394359418647      0.476399483031     -0.120911229418
  N        -3.728611077646      0.469096219987     -0.699432051792
  H        -4.670152215940      0.380799024332     -0.389679339776
  H        -3.965592713574      1.344633185521     -1.163480203861
  H        -3.837239926790     -0.280892720495     -1.385453506140
  C         1.069456795083      1.479133159054     -0.347319972317
  C         2.299426705278      1.263777911098      0.219355259409
  C         2.726309119543     -0.033318178663      0.708090342927
  O         3.835257786104     -0.241248221621      1.234504693950
  H         1.324584466071     -2.909073182420      1.031629563059
  H        -0.211146382214     -1.699059316242     -0.264761493801
  H        -1.243258482281      1.676612989973     -1.531254861373
  H        -1.349166518314     -0.041752942918     -1.964636079227
  H        -2.241012493815     -0.474187659347      0.413019880605
  H        -2.324117585932      1.278193303564      0.626019975499
  H         0.802405167230      2.472269023955     -0.718326453910
  H         3.020840886243      2.070066069665      0.324006319710
  Cu       -5.357049632207     -0.314567006520     -1.804260788985
  Cu       -5.371174902751      1.612734431329     -1.252364847051
 *

$new_job
%pal nprocs=16 end
%geom maxiter=200 end
%base "4_M0004"
! PBE D3 def2-TZVP opt PModel NOAUTOSTART
*xyz 0 2
  O         2.804506000000     -2.218687000000     -0.081543000000
  C         2.120519000000     -1.074250000000     -0.222137000000
  C         0.674742000000     -1.137289000000     -0.501641000000
  C        -0.071467000000     -0.023011000000     -0.650644000000
  C        -1.557129000000     -0.106674000000     -0.916292000000
  C        -2.331361000000     -0.388052000000      0.399610000000
  N        -2.120642000000      0.677585000000      1.409538000000
  H        -2.666218000000      0.510628000000      2.243336000000
  H        -1.158387000000      0.740868000000      1.707997000000
  H        -2.389395000000      1.585677000000      1.059335000000
  C         0.597476000000      1.288888000000     -0.530592000000
  C         1.919106000000      1.353869000000     -0.278134000000
  C         2.714693000000      0.124452000000     -0.115613000000
  O         4.183718000000      0.254884000000      0.167795000000
  H         3.734157000000     -2.132929000000      0.097952000000
  H         0.223876000000     -2.125970000000     -0.581469000000
  H        -1.919042000000      0.835501000000     -1.357442000000
  H        -1.758928000000     -0.908993000000     -1.645073000000
  H        -3.407345000000     -0.466972000000      0.163048000000
  H        -2.006376000000     -1.360644000000      0.808617000000
  H         0.018401000000      2.207518000000     -0.630200000000
  H         2.419023000000      2.312562000000     -0.244965000000
  Cu       -3.020220843707      2.177966945448      2.265308970792
  Cu       -1.252289262994      0.763948690260      3.014309268224
*

$new_job
%pal nprocs=16 end
%geom maxiter=200 end
%base "5_M0005"
! PBE D3 def2-TZVP opt PModel NOAUTOSTART
*xyz 0 2
  O         2.618028000000     -1.924163000000      1.148274000000
  C         1.892695000000     -0.804126000000      1.018802000000
  C         0.454162000000     -0.917308000000      0.718116000000
  C        -0.312430000000      0.161677000000      0.583028000000
  C        -1.792763000000      0.047744000000      0.298897000000
  C        -2.076905000000      0.288552000000     -1.208205000000
  N        -1.400607000000     -0.710281000000     -2.071197000000
  H        -1.633481000000     -0.576239000000     -3.045140000000
  H        -0.394596000000     -0.654169000000     -2.010265000000
  H        -1.666778000000     -1.654558000000     -1.832485000000
  C         0.304564000000      1.494500000000      0.736602000000
  C         1.600021000000      1.615279000000      1.003317000000
  C         2.439451000000      0.414011000000      1.154984000000
  O         3.898593000000      0.594624000000      1.461011000000
  H         3.541335000000     -1.806583000000      1.341918000000
  H         0.048366000000     -1.922922000000      0.613273000000
  H        -2.178466000000     -0.942209000000      0.591250000000
  H        -2.330548000000      0.799415000000      0.899384000000
  H        -3.168301000000      0.239800000000     -1.370850000000
  H        -1.742895000000      1.305141000000     -1.480160000000
  H        -0.311453000000      2.389346000000      0.641705000000
  H         2.079814000000      2.604480000000      1.061713000000
  Cu       -0.946418655027     -1.632902503156     -3.975430222931
  Cu       -0.173285923206     -2.350722469472     -2.207712797639
*