! PBE D3 def2-TZVP opt numfreq 
%base "3_deprotonated"
%pal nprocs=3 end
%geom maxiter=75 end
*xyz -1 2 
  O   2.32742373363652     -1.92296901926553     -0.14510670112372
  O   3.27257483178040      0.69075840520574     -0.70160130916183
  N   -3.03424044846660      0.41737487258160     -1.29463631810958
  C   -2.09804928334194     -0.15885167822058      1.00403046014118
  C   -0.66118131768954      0.07739410877471      0.61815230082648
  C   -2.98522545699860     -0.55630919070486     -0.19634063491257
  C   0.21856536098093     -1.00597095960665      0.43546878580049
  C   -0.17085634751838      1.36218820991160      0.35634815063573
  C   1.53147242775745     -0.82465504973994      0.00984421729199
  C   1.14733479558003      1.55991556909200     -0.06906527467715
  C   2.04738384614087      0.48881163750738     -0.26602041116245
  H   -2.51580192464398      0.75806194690122      1.45815859381416
  H   -2.16896912698959     -0.95395272365839      1.76903925213443
  H   -4.01893508216833     -0.74198685435500      0.14548071365073
  H   -2.61053596290720     -1.50643909630929     -0.61113943522606
  H   -0.11652741239535     -2.02984172639513      0.62942511677987
  H   -0.82655632828422      2.22709579208997      0.50133896634503
  H   1.52537598091597      2.56648502414001     -0.26311186386335
  H   -2.06428147515853      0.61029148914968     -1.57144998365494
  H   -3.37015308397725      1.31014820723933     -0.91815495057564
  H   3.23697617560149     -1.58815594574024     -0.39770924860305
  Cu  4.91115609814587     -0.28233301859764     -0.46978042634972
*