! PBE D3 def2-TZVP numfreq PModel NOAUTOSTART
%pal nprocs=16 end
%geom maxiter=150 end

%base "CU8_C2v_0"

* xyz 0 1
Cu       0.000000000      0.000000000      1.462082000
Cu       1.562335000      1.380609000     -0.484737000
Cu      -1.562335000     -1.380609000     -0.484737000
Cu       0.000000000     -2.729601000      1.421870000
Cu      -0.000000000      0.000000000     -2.366876000
Cu       1.562335000     -1.380609000     -0.484737000
Cu      -0.000000000      2.729601000      1.421870000
Cu      -1.562335000      1.380609000     -0.484737000
*

$new_job
! PBE D3 def2-TZVP numfreq PModel NOAUTOSTART
%pal nprocs=16 end
%geom maxiter=150 end

%base "CU8_C2v_1"

* xyz 0 1
Cu      -0.000000000      0.000000000      1.577156000
Cu       1.402014000      1.412800000     -0.521009000
Cu      -1.402014000     -1.412800000     -0.521009000
Cu       0.000000000     -2.748386000      1.533984000
Cu       0.000000000      0.000000000     -2.561091000
Cu       1.402014000     -1.412800000     -0.521009000
Cu       0.000000000      2.748386000      1.533984000
Cu      -1.402014000      1.412800000     -0.521009000
*

$new_job
! PBE D3 def2-TZVP numfreq PModel NOAUTOSTART
%pal nprocs=16 end
%geom maxiter=150 end

%base "CU8_C2v_2"

* xyz 0 1
Cu      -0.000000000      0.000000000      1.590911000
Cu       1.343491000      1.506847000     -0.550165000
Cu      -1.343491000     -1.506847000     -0.550165000
Cu      -0.000000000     -2.771334000      1.622324000
Cu      -0.000000000     -0.000000000     -2.634901000
Cu       1.343491000     -1.506847000     -0.550165000
Cu       0.000000000      2.771334000      1.622324000
Cu      -1.343491000      1.506847000     -0.550165000
*

$new_job
! PBE D3 def2-TZVP numfreq PModel NOAUTOSTART
%pal nprocs=16 end
%geom maxiter=150 end

%base "CU8_C2v_3"

* xyz 0 1
Cu       0.000000000      0.000000000      0.625453000
Cu       1.379277000      2.261861000     -0.575749000
Cu      -1.379277000     -2.261861000     -0.575749000
Cu       0.000001000     -2.591814000      1.934464000
Cu      -0.000000000      0.000000000     -2.191384000
Cu       1.379276000     -2.261861000     -0.575751000
Cu      -0.000001000      2.591814000      1.934464000
Cu      -1.379276000      2.261862000     -0.575751000
*
