! PBE D3 def2-TZVP numfreq PModel NOAUTOSTART
%pal nprocs=16 end
%geom maxiter=150 end

%base "CU8_D2dII_0"

* xyz 0 1 
  Cu    -0.509287   -0.666051   -2.017309
  Cu     1.429127   -0.154973    2.089096
  Cu     0.003799    1.276225    0.063102
  Cu    -0.392806   -1.724125    0.590507
  Cu    -1.321821    0.539681    2.346068
  Cu     1.957584   -0.745119   -0.614287
  Cu    -2.532048   -0.033812   -0.160419
  Cu     1.365452    1.508173   -2.296759 
*

$new_job
! PBE D3 def2-TZVP numfreq PModel NOAUTOSTART
%pal nprocs=16 end
%geom maxiter=150 end

%base "CU8_D2dII_1"

* xyz 0 1 
Cu      -1.337485000     -0.417358000     -2.359838000
Cu       1.183239000     -0.748678000      2.360656000
Cu      -0.078432000      1.375418000     -0.122410000
Cu       0.078381000     -1.375324000     -0.122345000
Cu      -1.183112000      0.748499000      2.360607000
Cu       2.544124000      0.156503000      0.121614000
Cu      -2.544186000     -0.156264000      0.121498000
Cu       1.337471000      0.417203000     -2.359783000
*

$new_job
! PBE D3 def2-TZVP numfreq PModel NOAUTOSTART
%pal nprocs=16 end
%geom maxiter=150 end

%base "CU8_D2dII_2"

* xyz 0 1
  Cu     0.183291   -1.370095   -2.379575
  Cu     0.142238   -1.380000    2.380383
  Cu     0.151044    2.762887    0.002875
  Cu    -0.150599   -2.762486    0.002904
  Cu    -0.142106    1.380067    2.380371
  Cu     1.313666    0.025421   -0.003724
  Cu    -1.313712   -0.026021   -0.003685
  Cu    -0.183822    1.370229   -2.379548  
*

