! PBE D3 def2-TZVP opt PModel
%pal nprocs=16 end
%geom maxiter=150 end
%base "1_M0005"
*xyz -1 2
  O         2.249561000000     -1.841863000000     -0.165908000000
  O         3.249468000000      0.657249000000     -0.451620000000
  N        -3.084232000000      0.242549000000     -1.357338000000
  C        -2.188716000000     -0.077980000000      0.969998000000
  C        -0.740375000000      0.117388000000      0.607627000000
  C        -3.047488000000     -0.629768000000     -0.178708000000
  C         0.098468000000     -0.976667000000      0.396777000000
  C        -0.204397000000      1.402002000000      0.460742000000
  C         1.428280000000     -0.756106000000      0.043963000000
  C         1.143233000000      1.583680000000      0.103622000000
  C         2.020984000000      0.513725000000     -0.123158000000
  H        -2.616910000000      0.869389000000      1.322475000000
  H        -2.244929000000     -0.765330000000      1.823814000000
  H        -4.073913000000     -0.759665000000      0.181667000000
  H        -2.691449000000     -1.619393000000     -0.486219000000
  H        -0.256297000000     -1.995555000000      0.497450000000
  H        -0.819276000000      2.282701000000      0.617511000000
  H         1.526577000000      2.597370000000     -0.003164000000
  H        -2.138388000000      0.248324000000     -1.757011000000
  H        -3.222242000000      1.205217000000     -1.051837000000
  H         3.074280000000     -1.341635000000     -0.388278000000
  Cu        4.421727990140     -2.486594789931     -0.893999511504
  Cu        2.441165211350     -4.117362155803     -0.313165282306
*

$new_job
%pal nprocs=16 end
%geom maxiter=150 end
%base "2_M0003"
! PBE D3 def2-TZVP opt PModel NOAUTOSTART
*xyz -1 2
  O         2.250562000000     -1.837087000000      0.120435000000
  O         3.249215000000      0.590745000000     -0.536637000000
  N        -2.973997000000     -0.755944000000     -1.280420000000
  C        -2.192138000000      0.067321000000      0.963195000000
  C        -0.742966000000      0.212891000000      0.581727000000
  C        -3.162396000000      0.235163000000     -0.216332000000
  C         0.098118000000     -0.899035000000      0.541937000000
  C        -0.209018000000      1.460924000000      0.241720000000
  C         1.428294000000     -0.732789000000      0.162699000000
  C         1.139750000000      1.588258000000     -0.134820000000
  C         2.019863000000      0.497616000000     -0.193566000000
  H        -2.427422000000      0.814402000000      1.732028000000
  H        -2.358044000000     -0.908916000000      1.437108000000
  H        -3.070819000000      1.236843000000     -0.651038000000
  H        -4.188312000000      0.143887000000      0.157118000000
  H        -0.254443000000     -1.891885000000      0.794515000000
  H        -0.827414000000      2.353010000000      0.260268000000
  H         1.521560000000      2.574498000000     -0.394616000000
  H        -2.879698000000     -1.679706000000     -0.858237000000
  H        -2.048479000000     -0.587158000000     -1.692229000000
  H         3.075798000000     -1.374731000000     -0.171712000000
  Cu        4.045824180636     -2.705128321340     -0.318412246907
  Cu        2.024524767080     -3.843482424815      0.433514120227
*

$new_job
%pal nprocs=16 end
%geom maxiter=150 end
%base "3_M0004"
! PBE D3 def2-TZVP opt PModel NOAUTOSTART
*xyz -1 2
  O         2.316592000000     -1.801093000000      0.257262000000
  O         3.237912000000      0.735278000000      0.459552000000
  N        -3.220340000000      0.495950000000      1.166711000000
  C        -2.161748000000     -0.219699000000     -0.983872000000
  C        -0.718864000000      0.036438000000     -0.631727000000
  C        -3.015156000000     -0.614276000000      0.230639000000
  C         0.149710000000     -1.023083000000     -0.368749000000
  C        -0.223821000000      1.341085000000     -0.528716000000
  C         1.467221000000     -0.749389000000     -0.007824000000
  C         1.113387000000      1.576819000000     -0.162743000000
  C         2.019486000000      0.543168000000      0.118056000000
  H        -2.199130000000     -1.027518000000     -1.726136000000
  H        -2.593812000000      0.659153000000     -1.479454000000
  H        -2.555203000000     -1.453444000000      0.765034000000
  H        -3.998147000000     -0.949411000000     -0.117394000000
  H        -0.174426000000     -2.054916000000     -0.432357000000
  H        -0.868152000000      2.193757000000     -0.721785000000
  H         1.463678000000      2.605306000000     -0.089691000000
  H        -2.298196000000      0.881272000000      1.396536000000
  H        -3.574650000000      0.121507000000      2.044976000000
  H         3.123093000000     -1.267211000000      0.468394000000
  Cu        2.504203666789     -3.643899891522      0.626939143257
  Cu        4.289707425292     -2.160455838222      0.767198604918
*

$new_job
%pal nprocs=16 end
%geom maxiter=150 end
%base "4_M0007"
! PBE D3 def2-TZVP opt PModel NOAUTOSTART
*xyz -1 2
  O         2.185387000000     -1.873294000000      0.196276000000
  O         3.274745000000      0.479286000000     -0.581660000000
  N        -3.065325000000     -1.019145000000     -1.015728000000
  C        -2.179358000000      0.247270000000      0.951491000000
  C        -0.721305000000      0.314174000000      0.575653000000
  C        -3.112091000000      0.241150000000     -0.268855000000
  C         0.074096000000     -0.831151000000      0.585929000000
  C        -0.139187000000      1.522821000000      0.175318000000
  C         1.407698000000     -0.736242000000      0.192714000000
  C         1.211117000000      1.578657000000     -0.212189000000
  C         2.045798000000      0.451654000000     -0.225280000000
  H        -2.415811000000      1.116754000000      1.578446000000
  H        -2.370189000000     -0.631952000000      1.580195000000
  H        -2.864044000000      1.068365000000     -0.943814000000
  H        -4.142709000000      0.394257000000      0.068937000000
  H        -0.321742000000     -1.795362000000      0.883523000000
  H        -0.722100000000      2.438271000000      0.153397000000
  H         1.630497000000      2.535483000000     -0.519306000000
  H        -2.080775000000     -1.236236000000     -1.203773000000
  H        -3.483728000000     -0.875277000000     -1.932682000000
  H         3.026209000000     -1.458215000000     -0.120447000000
  Cu        2.111630475779     -3.677945779404      0.495214815254
  Cu        3.422525841579     -2.920142396575     -0.451546425352
*

$new_job
%pal nprocs=16 end
%geom maxiter=150 end
%base "5_M0006"
! PBE D3 def2-TZVP opt PModel NOAUTOSTART
*xyz -1 2
  O         2.394153000000     -1.874655000000     -0.048523000000
  O         3.462705000000      0.594594000000     -0.343502000000
  N        -4.323272000000     -0.240881000000     -0.391632000000
  C        -2.083782000000      0.002404000000      0.654556000000
  C        -0.610339000000      0.161734000000      0.400458000000
  C        -2.885648000000     -0.083341000000     -0.649455000000
  C         0.220338000000     -0.953543000000      0.297203000000
  C        -0.042677000000      1.430295000000      0.237326000000
  C         1.578880000000     -0.768454000000      0.048575000000
  C         1.333349000000      1.575979000000     -0.012973000000
  C         2.207814000000      0.484141000000     -0.117403000000
  H        -2.438551000000      0.844902000000      1.262683000000
  H        -2.252558000000     -0.896577000000      1.261886000000
  H        -2.543380000000     -0.930347000000     -1.254907000000
  H        -2.735703000000      0.820432000000     -1.250956000000
  H        -0.161654000000     -1.961703000000      0.405490000000
  H        -0.654670000000      2.324669000000      0.301418000000
  H         1.742196000000      2.578170000000     -0.132430000000
  H        -4.636562000000      0.533032000000      0.192563000000
  H        -4.462210000000     -1.085003000000      0.162605000000
  H         3.243520000000     -1.396202000000     -0.220443000000
  Cu        2.252629947771     -3.917991938716     -0.042097609925
  Cu        4.134076793793     -3.015064810203     -0.426051243284
*
