%pal nprocs=16 end
%geom maxiter=200 end
%base "4_M0007"
! PBE D3 def2-TZVP opt PModel NOAUTOSTART
*xyz -2 1
  O         2.185387000000     -1.873294000000      0.196276000000
  O         3.274745000000      0.479286000000     -0.581660000000
  N        -3.065325000000     -1.019145000000     -1.015728000000
  C        -2.179358000000      0.247270000000      0.951491000000
  C        -0.721305000000      0.314174000000      0.575653000000
  C        -3.112091000000      0.241150000000     -0.268855000000
  C         0.074096000000     -0.831151000000      0.585929000000
  C        -0.139187000000      1.522821000000      0.175318000000
  C         1.407698000000     -0.736242000000      0.192714000000
  C         1.211117000000      1.578657000000     -0.212189000000
  C         2.045798000000      0.451654000000     -0.225280000000
  H        -2.415811000000      1.116754000000      1.578446000000
  H        -2.370189000000     -0.631952000000      1.580195000000
  H        -2.864044000000      1.068365000000     -0.943814000000
  H        -4.142709000000      0.394257000000      0.068937000000
  H        -0.321742000000     -1.795362000000      0.883523000000
  H        -0.722100000000      2.438271000000      0.153397000000
  H         1.630497000000      2.535483000000     -0.519306000000
  H        -2.080775000000     -1.236236000000     -1.203773000000
  H        -3.483728000000     -0.875277000000     -1.932682000000
  Cu       -2.579940795768     -1.180772749804     -2.571263687978
  Cu       -3.581427658678     -2.553048182559     -1.242130862429
*

$new_job
%pal nprocs=16 end
%geom maxiter=200 end
%base "5_M0006"
! PBE D3 def2-TZVP opt PModel NOAUTOSTART
*xyz -2 1
  O         2.394153000000     -1.874655000000     -0.048523000000
  O         3.462705000000      0.594594000000     -0.343502000000
  N        -4.323272000000     -0.240881000000     -0.391632000000
  C        -2.083782000000      0.002404000000      0.654556000000
  C        -0.610339000000      0.161734000000      0.400458000000
  C        -2.885648000000     -0.083341000000     -0.649455000000
  C         0.220338000000     -0.953543000000      0.297203000000
  C        -0.042677000000      1.430295000000      0.237326000000
  C         1.578880000000     -0.768454000000      0.048575000000
  C         1.333349000000      1.575979000000     -0.012973000000
  C         2.207814000000      0.484141000000     -0.117403000000
  H        -2.438551000000      0.844902000000      1.262683000000
  H        -2.252558000000     -0.896577000000      1.261886000000
  H        -2.543380000000     -0.930347000000     -1.254907000000
  H        -2.735703000000      0.820432000000     -1.250956000000
  H        -0.161654000000     -1.961703000000      0.405490000000
  H        -0.654670000000      2.324669000000      0.301418000000
  H         1.742196000000      2.578170000000     -0.132430000000
  H        -4.636562000000      0.533032000000      0.192563000000
  H        -4.462210000000     -1.085003000000      0.162605000000
  Cu       -5.530836108155     -0.296220376630     -1.716658166257
  Cu       -5.604161677981     -0.448666856809      0.557945625992
*
