! PBE D3 def2-TZVP opt numfreq

%base "M0001"
%pal nprocs=8 end
%geom maxiter=75 end
* xyz 1 1
C       -1.224823     -1.587242      0.220921
C       -0.017892      0.791629     -0.642482
C       -1.950120     -0.403966      0.185336
C        0.121085     -1.577659     -0.164105
C        0.736243     -0.388929     -0.594533
C       -1.345335      0.773733     -0.239305
O       -3.261213     -0.341801      0.559007
O       -2.048891      1.941679     -0.258944
C        2.199890     -0.366462     -0.959628
C        3.105051     -0.278056      0.271559
N        2.816475      0.949776      1.061500
H        1.843695      0.946388      1.405002
H        3.427806      1.024026      1.884278
H        2.935367      1.805323      0.503860
H       -1.684210     -2.518465      0.541070
H        0.403518      1.727905     -0.999767
H        0.676081     -2.514793     -0.137679
H       -3.584019     -1.243249      0.736823
H       -2.961362      1.693307     -0.000448
H        2.402267      0.475666     -1.633564
H        2.443113     -1.272673     -1.527915
H        2.960421     -1.124636      0.950005
H        4.158241     -0.224542     -0.019249
*
