! PBE D3 def2-TZVP opt numfreq PModel NOAUTOSTART cpcm(water)
%pal nprocs=16 end
%geom maxiter=150 end
%base "neutral"
*xyz 2 2
  C   -0.31466164141898     -0.98424980728701     -0.36129663659727
  C   -1.14974975612247      1.68382144525008     -0.01222420690638
  C   -1.63671865636297     -0.70417164952078     -0.07290746342205
  C   0.61628814303502      0.06981098483040     -0.50464516999983
  C   0.17660885976350      1.39948488731954     -0.30504120389866
  C   -2.06024929958359      0.63238636731580      0.10120178510387
  O   -3.39595601474831      0.81090817164060      0.37997761883897
  O   -2.62702568567727     -1.66552342192712      0.04647039600001
  C   2.01158565205720     -0.21929110428013     -0.89951852509521
  C   3.03790797208950     -0.52800344633332      0.35282696045379
  N   3.51215111612517      0.60475813181689      1.01694160410712
  H   0.00055424773204     -2.01892547320731     -0.51939448051192
  H   -1.48160475098972      2.71613097469335      0.11916620173967
  H   0.88436752974159      2.22361479041467     -0.40635322417827
  H   -3.63567671763580      1.75705321702043      0.45446108931755
  H   -2.29097466357096     -2.56847506167298     -0.11647183043269
  H   2.46287984061172      0.60275417392375     -1.46769067984493
  H   2.07650080830558     -1.14174005668152     -1.49207202115920
  H   2.51527347767728     -1.19924678744440      1.04426256541389
  H   3.87147744027599     -1.04767946784036     -0.14148833074881
  H   3.08943796110450      0.94701474700466      1.87734599427498
  H   4.31194121603785      1.12791932338369      0.66258478233203
  Cu2  -4.54818759544687     -0.94119711341894      0.38340387021331
*

$new_job

! PBE D3 def2-TZVP opt numfreq PModel NOAUTOSTART cpcm(water)
%pal nprocs=16 end
%geom maxiter=150 end
%base "protonated"
*xyz 3 2
  C   1.73208716760524      1.52163363804737      0.09400973992142
  C   0.12269499200650     -0.82479950744431      0.01987288424070
  C   2.33639508362140      0.29697282445491      0.24975126598006
  C   0.33459659144966      1.57696447231623     -0.09487409588101
  C   -0.49138594327014      0.39986605277504     -0.13627008083436
  C   1.53150451446463     -0.90779117185879      0.24072305869684
  O   3.72104252869975      0.13908753045604      0.46378757070754
  O   2.01915772372487     -2.10379651260847      0.45939167759571
  C   -1.97656158864718      0.61078692557388     -0.33872145929303
  C   -2.84669940206333     -0.64734035589458     -0.32825017799819
  N   -4.31380373232302     -0.30676081195722     -0.51735376940365
  H   -4.49810224973394      0.16530432408188     -1.41893419544991
  H   -4.89128643548083     -1.16589430595938     -0.50680319545201
  H   -4.67770343639510      0.30577357754062      0.23243086334703
  H   2.30960001260237      2.44920004963617      0.11620229884757
  H   -0.41175403822471     -1.77650568290962      0.01388088575970
  H   -0.12665020753816      2.56047191410180     -0.21912243351271
  H   3.98701922369121      0.62914435528248      1.27591365242638
  H   2.97697241761329     -2.11669029537517      0.68787636478124
  H   -2.10124567219892      1.15581844011477     -1.29343235582567
  H   -2.31359066752325      1.31462753838409      0.44508573299230
  H   -2.58892060084130     -1.33784431134977     -1.14292926681201
  H   -2.78194576019267     -1.18640525161908      0.62699702115356
  Cu2  5.28716540795366      0.19260894121113     -0.89908495398752
*

$new_job

! PBE D3 def2-TZVP opt numfreq PModel NOAUTOSTART cpcm(water)
%pal nprocs=16 end
%geom maxiter=150 end
%base "deprotonated"
*xyz 1 2
  O   2.03452037954305     -2.08611286427439      0.08852964556773
  O   3.29934340638899      0.17476142775673     -0.47713139719137
  N   -3.06430817034243     -1.09336200908107     -1.02896183957806
  C   -2.14530044543004      0.28870572278042      0.92150506324752
  C   -0.70299456841306      0.26516947386174      0.58750352775633
  C   -3.07441103662295      0.16763938573223     -0.36940993701511
  C   0.00375645970789     -0.93836744228769      0.51442132518459
  C   -0.03222531125887      1.48349505847430      0.26554125837599
  C   1.34788662204534     -0.94218945001020      0.15115597662163
  C   1.30160011148151      1.50371553774554     -0.08634990865939
  C   2.03394125802549      0.29988020244273     -0.15595854143957
  H   -2.41764255533157      1.24095858102956      1.40023350329253
  H   -2.41800802984314     -0.53113201147160      1.59993150844581
  H   -2.78576530038842      0.95491375350725     -1.07875908327872
  H   -4.09539737528959      0.38431170589161     -0.02311277115255
  H   -0.46839660735158     -1.88785494955388      0.77067154944315
  H   -0.59102405953055      2.41986747954452      0.31281484878136
  H   1.81210730363680      2.44400944639236     -0.31438703296979
  H   -3.45727862800925     -1.88145469274972     -0.52071311831384
  H   -2.23124436966592     -1.33971534458085     -1.55643755235738
  H   2.95788687166625     -1.86161031892613     -0.16662287001886
  Cu2  4.45090665398206      1.55365772577655     -0.88307928274200
*

$new_job

! PBE D3 def2-TZVP opt numfreq PModel NOAUTOSTART cpcm(water)
%pal nprocs=16 end
%geom maxiter=150 end
%base "2x_deprotonated"
*xyz 0 2
  O   -2.14008399864869     -1.92944889963538      0.06529478932115
  O   -3.30701343334274      0.53635187638730     -0.53935601185534
  N   2.86991882229045     -0.92014523266409     -1.20588766894877
  C   2.13658896918447      0.25381127971663      0.94523789464956
  C   0.67535117186624      0.29704533674795      0.61522021776727
  C   3.02390632517907      0.23445661020969     -0.33220589095514
  C   -0.07641485004684     -0.86267555518744      0.52815622920924
  C   0.06255114335394      1.54980369628400      0.29955124429318
  C   -1.44195885027539     -0.84226090998406      0.13808238732337
  C   -1.25680612609792      1.63797206367541     -0.08237562748493
  C   -2.06533851044555      0.47121348509998     -0.18473414955688
  H   2.41489216332533      1.13511473242845      1.54714276359494
  H   2.36630187622479     -0.64142141615643      1.54454623963280
  H   4.07873790312124      0.29558758150798     -0.02110222348955
  H   2.81652674730299      1.14103327463733     -0.92260017488255
  H   0.35883971427116     -1.83334102874551      0.77510836459158
  H   0.66600090292116      2.45795610202759      0.37152365374569
  H   -1.72229546125553      2.59722638328268     -0.31353113380751
  H   1.89715133967586     -1.00574973145384     -1.51101942981735
  H   3.09114350410703     -1.78186323101375     -0.70186394772339
  Cu2  -3.94639507971106     -1.34091808316449     -0.48088747460736
*

$new_job

! PBE D3 def2-TZVP opt numfreq PModel NOAUTOSTART cpcm(water)
%pal nprocs=16 end
%geom maxiter=150 end
%base "zwitterione"
*xyz 2 2
  O   3.41558266553673     -1.94269986922341     -0.20675002417826
  C   2.51251416990587     -0.94008487410380     -0.15757999757812
  C   1.14876642932751     -1.08959960230454     -0.38688156090168
  C   0.30755265395026      0.02896291248095     -0.32739103384802
  C   -1.17296637985854     -0.10822451157561     -0.60888408450217
  C   -2.00817260854912      0.07269440827847      0.66250319989937
  N   -3.49667512889164      0.01949229037076      0.35058855011760
  H   -4.06324713057584      0.14016855084326      1.20553687515816
  H   -3.77351540993764      0.76305117434314     -0.31026971391371
  H   -3.76657314945116     -0.88277286962842     -0.07247513066695
  C   0.84846076598474      1.31167157542045     -0.02586109575099
  C   2.18924672534547      1.48207928251481      0.21591492375350
  C   3.07820274694990      0.36355037681344      0.16026379317084
  O   4.33560540849828      0.51754677580605      0.37737686425466
  H   3.00666290684380     -2.80097110385143     -0.43729302929831
  H   0.74321774290549     -2.07404914806002     -0.63345122689997
  H   -1.45886280901436      0.65817538203095     -1.35044690737921
  H   -1.37814897444125     -1.09233276570991     -1.05672900922181
  H   -1.81679097352047     -0.71989126772857      1.39725705734172
  H   -1.83114022266322      1.04371213678056      1.14240708776317
  H   0.19111618752749      2.18339506834350     -0.00788484419097
  H   2.61899582033899      2.45883484552118      0.43982233232017
  Cu2  5.60270615478872     -0.86248006836182      0.29986337755096
*
