! PBE D3 def2-TZVP opt numfreq PModel NOAUTOSTART cpcm(water)
%pal nprocs=16 end
%geom maxiter=150 end
%base "neutral"
*xyz 2 2
  C   -0.09625132784858     -0.83014044113634     -0.32058670956934
  C   -1.14917678578247      1.77380209762231     -0.10040610052142
  C   -1.40726909443459     -0.63697454609702      0.07501724068257
  C   0.71441660698379      0.27624551956974     -0.61691418915943
  C   0.16192370510394      1.57775567741507     -0.49211659748429
  C   -1.95998372292605      0.66777040058595      0.20507529693621
  O   -3.21641194565174      0.88021901923172      0.62034754502382
  O   -2.26330205144206     -1.69066056250320      0.37527946844450
  C   2.12710738233498      0.09998746688251     -1.00880958356815
  C   3.13043575469044      0.12866027626271      0.24811163170759
  N   3.04920087235915     -0.99884553325748      1.09606243617321
  H   0.29208255206064     -1.84666077525368     -0.41667546030671
  H   -1.57560907068954      2.77281139994372     -0.00629271023981
  H   0.79188368069171      2.44056886317851     -0.71541930516175
  H   -3.65895771389159      0.03562100245161      0.85057826901209
  H   -1.74875276712752     -2.47747340222523      0.65995981005602
  H   2.46311472157054      0.93042209051749     -1.64603970326234
  H   2.29742900822527     -0.85266328290480     -1.52665576591883
  H   4.13147958756760      0.18174190481853     -0.20360851869634
  H   2.93449998023194      1.04572200482614      0.81727020313446
  H   3.31907733172525     -1.90078053575860      0.70766377439073
  H   2.27798768838803     -1.04832767297380      1.75869682739928
  Cu2  -3.60576987613917     -2.30406631919585     -0.96681096907207
*

$new_job

! PBE D3 def2-TZVP opt numfreq PModel NOAUTOSTART cpcm(water)
%pal nprocs=16 end
%geom maxiter=150 end
%base "protonated"
*xyz 3 2
  C   1.73208716760524      1.52163363804737      0.09400973992142
  C   0.12269499200650     -0.82479950744431      0.01987288424070
  C   2.33639508362140      0.29697282445491      0.24975126598006
  C   0.33459659144966      1.57696447231623     -0.09487409588101
  C   -0.49138594327014      0.39986605277504     -0.13627008083436
  C   1.53150451446463     -0.90779117185879      0.24072305869684
  O   3.72104252869975      0.13908753045604      0.46378757070754
  O   2.01915772372487     -2.10379651260847      0.45939167759571
  C   -1.97656158864718      0.61078692557388     -0.33872145929303
  C   -2.84669940206333     -0.64734035589458     -0.32825017799819
  N   -4.31380373232302     -0.30676081195722     -0.51735376940365
  H   -4.49810224973394      0.16530432408188     -1.41893419544991
  H   -4.89128643548083     -1.16589430595938     -0.50680319545201
  H   -4.67770343639510      0.30577357754062      0.23243086334703
  H   2.30960001260237      2.44920004963617      0.11620229884757
  H   -0.41175403822471     -1.77650568290962      0.01388088575970
  H   -0.12665020753816      2.56047191410180     -0.21912243351271
  H   3.98701922369121      0.62914435528248      1.27591365242638
  H   2.97697241761329     -2.11669029537517      0.68787636478124
  H   -2.10124567219892      1.15581844011477     -1.29343235582567
  H   -2.31359066752325      1.31462753838409      0.44508573299230
  H   -2.58892060084130     -1.33784431134977     -1.14292926681201
  H   -2.78194576019267     -1.18640525161908      0.62699702115356
  Cu2  5.28716540795366      0.19260894121113     -0.89908495398752
*

$new_job

! PBE D3 def2-TZVP opt numfreq PModel NOAUTOSTART cpcm(water)
%pal nprocs=16 end
%geom maxiter=150 end
%base "deprotonated"
*xyz 1 2
  O   2.26084164507082     -2.09499237526522     -0.12351261060848
  O   3.27386854970865      0.29715698877875      0.44665616671966
  N   -3.02740748338264      0.52479273278855      1.23273161164724
  C   -2.14687041584005     -0.16364650145423     -0.99170149515556
  C   -0.69737902796406     -0.02676563842593     -0.63825948473826
  C   -3.01805255613176     -0.54182735240212      0.22650159243340
  C   0.12269389407859     -1.15642220062577     -0.56417119074986
  C   -0.15240391080706      1.25674121081090     -0.33120094336480
  C   1.45761632113997     -1.02493307227655     -0.19539634202655
  C   1.16521005383529      1.41126026877946      0.03688309729763
  C   2.01771993259306      0.27883190843810      0.11686637758466
  H   -2.27046352860052     -0.95363932536336     -1.74777617017862
  H   -2.52174709448240      0.78216097935800     -1.40992035348513
  H   -2.66214312595285     -1.51560440645898      0.61420099665110
  H   -4.04942526279055     -0.68684429192360     -0.12729505951784
  H   -0.27063620219543     -2.14761968442168     -0.79767549418140
  H   -0.80623609652440      2.12814965537032     -0.39237555639691
  H   1.58599173621695      2.39235516220607      0.27107223114466
  H   -2.11727820978539      0.57006791860815      1.69990506993360
  H   -3.70470684710996      0.29367837794818      1.96333244464691
  H   3.15125473374909     -1.76842873442043      0.14836729596643
  Cu2  4.28872476217466      1.77763339795136      0.92934939537811
*

$new_job

! PBE D3 def2-TZVP opt numfreq PModel NOAUTOSTART cpcm(water)
%pal nprocs=16 end
%geom maxiter=150 end
%base "2x_deprotonated"
*xyz 0 2
  O   2.43586882996748     -1.90023421851759     -0.01777148959863
  O   3.43804502215138      0.60425778472090      0.52730566387379
  N   -4.31855210478787     -0.12203736968418      0.43629000220145
  C   -2.04261783260381     -0.03217420918978     -0.69635778568917
  C   -0.56961664668622      0.11369149596034     -0.44052433828931
  C   -2.86947893788980      0.00191705158457      0.61225554920640
  C   0.25040836093671     -1.00001173084815     -0.30857526300864
  C   -0.00651529176187      1.41435782607464     -0.27852422011331
  C   1.63763311007587     -0.87403724975237     -0.04743867291060
  C   1.33434066833833      1.59440115762532      0.00389502522517
  C   2.19437431387157      0.47656912028070      0.17346684689896
  H   -2.39708518617520      0.78440774420579     -1.34681070405581
  H   -2.24707070091452     -0.98408315670070     -1.21131132410423
  H   -2.66310959321948      0.94453096832017      1.14374492090914
  H   -2.52612685112091     -0.81474596642492      1.26735939139948
  H   -0.15702830111019     -2.00516293943112     -0.44646832450790
  H   -0.65960599294308      2.28423579571361     -0.38377341041693
  H   1.75566858006615      2.59424524131224      0.12909145049747
  H   -4.52556109051840     -0.98855796426193     -0.06910904321185
  H   -4.65249401955347      0.63411204435591     -0.16845207029437
  Cu2  4.24854924787735     -1.22651091234346      0.48276729298892
*

$new_job

! PBE D3 def2-TZVP opt numfreq PModel NOAUTOSTART cpcm(water)
%pal nprocs=16 end
%geom maxiter=150 end
%base "zwitterione"
*xyz 2 2
  O   3.30366993058166     -1.96116423120905     -0.07903755898060
  C   2.45537634520808     -0.91232967153148     -0.11655050258584
  C   1.09516653815941     -1.01444701749633     -0.38020341419974
  C   0.29961464111158      0.13577387365669     -0.39723741292432
  C   -1.17726731017997      0.03032086917832     -0.65483894509809
  C   -1.95791872113163      0.00358119087738      0.66016646747512
  N   -3.42985148355613     -0.11151314205860      0.39208122611513
  H   -3.96924686462271     -0.11582003201216      1.26869303358015
  H   -3.77218688878039      0.67541983676992     -0.17736525518638
  H   -3.65644390755740     -0.98033076117034     -0.11364087046523
  C   0.88806549018807      1.40525168763659     -0.14386730642484
  C   2.23366747195883      1.52652203158535      0.11782043121139
  C   3.07215081131400      0.37409385429533      0.14299839711272
  O   4.33980308631136      0.47128061412231      0.38751948584957
  H   2.84653474375635     -2.80976340895502     -0.25266075276072
  H   0.65393623989510     -1.99483040148719     -0.57615336768136
  H   -1.51160869437814      0.89422322200072     -1.25145515478867
  H   -1.39414110179680     -0.88568446557019     -1.22430496214171
  H   -1.67808637838891     -0.85763260387537      1.27860390765398
  H   -1.81038461488373      0.92396417397687      1.23781534267957
  H   0.25390590642505      2.29354521124659     -0.16568337540406
  H   2.69623327673630      2.49571186235556      0.30809756593263
  Cu2  5.45154907463003     -1.05594399333591      0.40883942403131
*
