! PBE D3 def2-TZVP opt numfreq PModel NOAUTOSTART cpcm(water)
%pal nprocs=16 end
%geom maxiter=150 end
%base "neutral"
*xyz 0 1
  C   -0.00840333875173     -1.10991541877379     -0.59942886237143
  C   -1.67885670254819      1.13537494713009     -0.73246661744969
  C   -1.39813605667918     -1.27695150906711     -0.59091288141427
  C   0.58033575045247      0.15557215028836     -0.68097326049558
  C   -0.26404863833496      1.29077130651785     -0.74916625503012
  C   -2.23698954353017     -0.15193823452185     -0.65778024934906
  O   -3.58572135234083     -0.41381228156063     -0.66316241135763
  O   -1.92433158825282     -2.52864992291818     -0.51580391416738
  C   2.07254230843299      0.32062691950454     -0.62897391317011
  C   2.59688952783418      0.81671712816984      0.74692427992473
  N   2.29417247308532     -0.00772568297818      1.90470114060713
  H   0.61364608113884     -2.00410214258273     -0.53555022605076
  H   -2.32909621677533      1.99682045798228     -0.90573278438524
  H   0.16370434487877      2.27823462149563     -0.93322302620134
  H   -4.07878268048576      0.41214685392104     -0.52163489198492
  H   -2.89608704350153     -2.43580962055596     -0.46908141968379
  H   2.39885006306158      1.03805958557108     -1.40123780616043
  H   2.55394622600656     -0.64213085530320     -0.86410418003237
  H   3.69070714859285      0.93260097539572      0.65889521044748
  H   2.18767758556222      1.82083195195631      0.94448686974280
  H   2.44906575991656     -0.99940773762992      1.71297979768613
  H   1.31334708284397      0.11177370463832      2.19036167532160
  Cu  -0.76104833024236      1.38869542973756      3.55378619463678
  Cu  -0.90231218073743      1.34848631730894      1.27914544273847
*

$new_job

! PBE D3 def2-TZVP opt numfreq PModel NOAUTOSTART cpcm(water)
%pal nprocs=16 end
%geom maxiter=150 end
%base "protonated"
*xyz 1 1
  C   -1.20661357689354     -1.45431065807185      0.23915410067834
  C   0.18080272167414      0.76597883507734     -0.63943979050316
  C   -1.84022678606532     -0.21389927337275      0.22989182148545
  C   0.11649146496039     -1.60120666607614     -0.17776263329569
  C   0.82256444951849     -0.48405024838925     -0.63319730972596
  C   -1.15118947730111      0.94129322908219     -0.21459291125906
  O   -3.15989923602137     -0.09698218083106      0.63966178899929
  O   -1.64170344515097      2.18514265459222     -0.28776158487850
  C   2.28643979704144     -0.57081524893069     -0.99028983373450
  C   3.15235991807869     -0.36639833991469      0.25889981121719
  N   2.74724078792159      0.93048767648188      0.93212626327277
  H   1.69939864059347      1.00522996649901      0.84142859466253
  H   3.01774940835792      0.96796785180489      1.92281160004892
  H   3.15216557500963      1.74803396082996      0.45592371204498
  H   -1.76476188426547     -2.33111862510753      0.57827681540454
  H   0.66265397372222      1.64542575781901     -1.07789557014744
  H   0.57949673118732     -2.58870747193968     -0.16471605246219
  H   -3.53292388642051     -0.98215124456335      0.81447857713955
  H   -2.59367338884093      2.28495818133894      0.06560600621293
  H   2.55119969586672      0.17385340676755     -1.75747237155169
  H   2.54165582671357     -1.55681445337732     -1.40292901202242
  H   2.97094457898132     -1.16006647988676      0.99424736818100
  H   4.22598593599657     -0.31135954735509      0.04022103633644
  Cu  -4.30424418457165      1.64724166122639      0.90699918538661
  Cu  -4.74127059021661      3.85812435480776      0.78300696232407
*

$new_job

! PBE D3 def2-TZVP opt numfreq PModel NOAUTOSTART cpcm(water)
%pal nprocs=16 end
%geom maxiter=150 end
%base "deprotonated"
*xyz -1 1
  O   1.71205046751449     -2.23313691065912      0.22424909328949
  O   3.13955803537721      0.18058519956554     -0.40680228439665
  N   -3.08879826210516     -0.82723847512955     -1.20054856600659
  C   -2.39045161117211      0.33169982119668      0.96359664622535
  C   -0.91335982023434      0.29000302637157      0.66018140250120
  C   -3.26176732318113      0.32705097977960     -0.31209713450142
  C   -0.23198237941415     -0.93401151754626      0.60336724296093
  C   -0.21087146661640      1.46147081914225      0.35168552645275
  C   1.13326504093474     -1.04987948137398      0.25078174182185
  C   1.14219364484310      1.39079167063047     -0.00242814537380
  C   1.81633562743956      0.17246276951493     -0.05938594723357
  H   -2.63484706131066      1.23550799691232      1.55060900415047
  H   -2.67105463588840     -0.53827686810641      1.58371886693788
  H   -3.03323211339681      1.23368856626748     -0.89646879145825
  H   -4.32830391795847      0.38915409606628     -0.03199812237198
  H   -0.75041355090178     -1.86376298079453      0.85586033364364
  H   -0.71402325131745      2.43138475816256      0.39170119633417
  H   1.70615101953204      2.29713222147484     -0.23675033943242
  H   -3.29823032168097     -1.68047274653129     -0.67277393591353
  H   -2.08869356339600     -0.90341914972134     -1.41928549632464
  H   3.46379353592006     -0.76328457647948     -0.39035917770760
  Cu  5.57460618087899     -3.55781798002944     -0.65725769757763
  Cu  3.44643867384966     -2.82993498486810     -0.17135054269965
*

$new_job

! PBE D3 def2-TZVP opt numfreq PModel NOAUTOSTART cpcm(water)
%pal nprocs=16 end
%geom maxiter=150 end
%base "2x_deprotonated"
*xyz -2 1
  O   -1.70050135957179     -2.51196202725962      0.26298886505696
  O   -3.13730178989436     -0.30712238943989     -0.56819403955072
  N   3.05365045632018      0.59984804081173     -1.41032029419824
  C   2.30881435724787      0.25727540394034      0.99464982079355
  C   0.85258737924281      0.12816170253619      0.63355598089171
  C   3.25644705580067     -0.14758734496779     -0.15665926400788
  C   0.22000361572819     -1.13877375038568      0.63952238614623
  C   0.11194977985004      1.23859929227795      0.21054639192962
  C   -1.12138682259216     -1.34058174716131      0.24203704962948
  C   -1.22972710851574      1.08897135322572     -0.19964404660009
  C   -1.89090777667183     -0.16018006526936     -0.20385784915493
  H   2.53270401175927      1.30783515686861      1.26880892801010
  H   2.55863654753382     -0.36435814480317      1.87917485905516
  H   3.09827680790676     -1.21549418051181     -0.38008283933979
  H   4.31463660316044     -0.03152770871363      0.15159259161238
  H   0.77783994893336     -2.02381663126134      0.97381007438827
  H   0.57915577665363      2.23253676749542      0.21304923297416
  H   -1.81120169375170      1.96299840816148     -0.51651264847928
  H   3.17178587994436      1.59681981313921     -1.18870081149310
  H   2.04193382408914      0.53056924615686     -1.59889240408326
  Cu  -3.64542983594845     -2.28748250503039     -0.36681902788438
  Cu  -5.57721056550850     -3.65209949645151     -0.68167001528498
*

$new_job

! PBE D3 def2-TZVP opt numfreq PModel NOAUTOSTART cpcm(water)
%pal nprocs=16 end
%geom maxiter=150 end
%base "zwitterione"
*xyz 0 1
  O   2.19510147299204     -2.09069239983479      1.13034929523899
  C   1.58707191429648     -0.89471473766054      1.01152829642755
  C   0.19318255805011     -0.89329810074501      0.87375757262784
  C   -0.56360934211095      0.30850108520129      0.78260081075749
  C   -1.98416819787831      0.22314847227995      0.30296574334414
  C   -1.98166712117428      0.24985824459205     -1.24369744996160
  N   -0.89802463033063     -0.68405612149387     -1.73198074708739
  H   -0.42298867673849     -0.34859500191594     -2.57543859483116
  H   -0.18637722199477     -0.74789009824098     -0.89348471348986
  H   -1.25001270581816     -1.63132987284065     -1.90867151631523
  C   0.13611147748540      1.51869357920583      0.80725148383539
  C   1.52435064176545      1.53491423446154      0.93896705799413
  C   2.31547416612399      0.35859565826629      1.02017331519534
  O   3.60715568873215      0.43169371153118      1.11048681818250
  H   3.20189082938439     -1.96695000956664      1.16271561815062
  H   -0.31725400894832     -1.86063450093910      0.94955494040601
  H   -2.47498476490351     -0.69756961228014      0.65858078050246
  H   -2.59532194428171      1.07199244658408      0.64264635467521
  H   -2.93544214955871     -0.04814526639486     -1.70198032607622
  H   -1.70671341910226      1.25085687444788     -1.59615125398899
  H   -0.40767379298852      2.46380657468923      0.71898326666022
  H   2.06300835330370      2.48345534418680      0.97890807007855
  Cu  4.89879006575489     -0.95345584773353      1.27598639836139
  Cu  6.16960852138600     -2.83975765819905      1.41392713407761
*
