! PBE D3 def2-TZVP opt numfreq

%base "M00016"
%pal nprocs=8 end
%geom maxiter=75 end
* xyz 0 1
C       -0.046652     -0.911071     -0.532758
C       -1.135871      1.590984      0.120364
C       -1.381293     -0.790692     -0.171165
C        0.766734      0.230357     -0.570469
C        0.210423      1.479188     -0.241853
C       -1.925139      0.448711      0.153453
O       -3.247017      0.492122      0.501091
O       -2.163985     -1.909307     -0.134001
C        2.225367      0.115784     -0.948125
C        3.187017      0.283614      0.238177
N        3.056643     -0.765978      1.249695
H        0.350146     -1.891510     -0.780768
H       -1.540199      2.566466      0.369856
H        0.828192      2.374941     -0.266569
H       -3.475863      1.416560      0.698663
H       -3.044027     -1.580947      0.138402
H        2.448055      0.881624     -1.702239
H        2.410633     -0.847709     -1.440388
H        4.216463      0.270880     -0.136514
H        3.036819      1.255781      0.720669
H        3.152908     -1.679303      0.806926
H        2.104875     -0.748710      1.621641
*
