! PBE D3 def2-TZVP opt PModel NOAUTOSTART cpcm(water)

%pal nprocs=16 end
%geom maxiter=200 end
%base "1_M0001"

* xyz 1 1
6       -1.224823000     -1.587242000      0.220921000
6       -0.017892000      0.791629000     -0.642482000
6       -1.950120000     -0.403966000      0.185336000
6        0.121085000     -1.577659000     -0.164105000
6        0.736243000     -0.388929000     -0.594533000
6       -1.345335000      0.773733000     -0.239305000
8       -3.261213000     -0.341801000      0.559007000
8       -2.048891000      1.941679000     -0.258944000
6        2.199890000     -0.366462000     -0.959628000
6        3.105051000     -0.278056000      0.271559000
7        2.816475000      0.949776000      1.061500000
1        1.843695000      0.946388000      1.405002000
1        3.427806000      1.024026000      1.884278000
1        2.935367000      1.805323000      0.503860000
1       -1.684210000     -2.518465000      0.541070000
1        0.403518000      1.727905000     -0.999767000
1        0.676081000     -2.514793000     -0.137679000
1       -3.584019000     -1.243249000      0.736823000
1       -2.961362000      1.693307000     -0.000448000
1        2.402267000      0.475666000     -1.633564000
1        2.443113000     -1.272673000     -1.527915000
1        2.960421000     -1.124636000      0.950005000
1        4.158241000     -0.224542000     -0.019249000
29      -5.033431918      1.386171935      0.910218679
29      -7.277153442      2.439045460     -0.535379970
29      -7.555214375      0.420078545      1.409976040
29      -6.556260040      2.439045460      3.102257967
29      -4.846653711      3.747534813     -0.615063703
29      -4.279066565      3.747534813      2.248988770
29      -6.764885237      4.623216952      1.253351584
29      -8.927352183      2.985363907      1.681901149
*

$new_job

! PBE D3 def2-TZVP opt PModel NOAUTOSTART cpcm(water)

%pal nprocs=16 end
%geom maxiter=200 end
%base "2_M0002"

* xyz 1 1
6        1.293053000      1.584692000     -0.120584000
6       -0.021154000     -0.796401000      0.558269000
6        1.972497000      0.375150000     -0.152591000
6       -0.060079000      1.600914000      0.239173000
6       -0.734320000      0.410591000      0.567578000
6        1.315328000     -0.802827000      0.182827000
8        3.288363000      0.287570000     -0.503222000
8        1.976877000     -1.994795000      0.146051000
6       -2.198861000      0.441011000      0.936665000
6       -3.064327000     -0.516537000      0.110481000
7       -2.877334000     -0.277120000     -1.346384000
1       -1.895440000     -0.437300000     -1.619560000
1       -3.455176000     -0.913388000     -1.910094000
1       -3.113406000      0.686489000     -1.613784000
1        1.794400000      2.517452000     -0.364044000
1       -0.476087000     -1.739036000      0.852323000
1       -0.573714000      2.561196000      0.274344000
1        3.649250000      1.185516000     -0.611564000
1        2.902090000     -1.766172000     -0.082955000
1       -2.589913000      1.459076000      0.813909000
1       -2.297332000      0.197279000      2.001363000
1       -2.811007000     -1.565910000      0.287992000
1       -4.127075000     -0.367127000      0.323228000
29       5.001589445     -1.480457575     -0.937886974
29       6.519018140     -3.376603414      0.590061163
29       4.120503094     -4.072020157     -0.714345377
29       5.607053202     -3.376603414     -3.004436995
29       7.638604412     -0.948628491     -0.100798580
29       6.920579285     -0.948628491     -2.930885444
29       8.176295980     -3.173562822     -1.743346017
29       6.636386611     -5.413767981     -1.352653551
*

$new_job

! PBE D3 def2-TZVP opt PModel NOAUTOSTART cpcm(water)

%pal nprocs=16 end
%geom maxiter=200 end
%base "3_M0003"

* xyz 1 1
6       -1.052971000     -1.610853000      0.227945000
6       -0.155273000      1.042331000      0.386444000
6       -1.900177000     -0.558785000     -0.082300000
6        0.259072000     -1.340029000      0.616835000
6        0.724848000     -0.014189000      0.680298000
6       -1.463991000      0.758846000      0.008962000
8       -3.176831000     -0.835219000     -0.472397000
8       -2.360382000      1.743253000     -0.293590000
6        2.170086000      0.262382000      1.019243000
6        2.996341000      0.642764000     -0.212947000
7        2.935393000     -0.424039000     -1.248695000
1        1.964776000     -0.577324000     -1.563597000
1        3.486702000     -0.176057000     -2.080253000
1        3.285887000     -1.324531000     -0.898185000
1       -1.421674000     -2.632627000      0.179154000
1        0.177729000      2.074669000      0.454029000
1        0.901714000     -2.178378000      0.880389000
1       -3.606289000      0.034991000     -0.597921000
1       -2.015948000      2.601366000      0.008641000
1        2.614505000     -0.615261000      1.505430000
1        2.216246000      1.073063000      1.756708000
1        2.627447000      1.556893000     -0.688467000
1        4.051243000      0.772409000      0.045956000
29      -4.598310704      1.971034490     -1.384365279
29      -5.725760324      1.599980139     -3.996598120
29      -5.866383447     -0.385333362     -2.002428936
29      -7.350522931      1.599980139     -0.663094928
29      -4.942480610      4.117754214     -3.176165655
29      -6.221718798      4.117754214     -0.551570182
29      -7.651394725      3.405751060     -2.872450475
29      -8.285883858      0.751647248     -3.181702982
*

$new_job

! PBE D3 def2-TZVP opt PModel NOAUTOSTART cpcm(water)

%pal nprocs=16 end
%geom maxiter=200 end
%base "4_M0004"

* xyz 1 1
6       -1.005565000     -1.624533000      0.076505000
6       -0.194514000      1.030187000      0.473013000
6       -1.891116000     -0.578507000     -0.127987000
6        0.301543000     -1.346076000      0.477730000
6        0.727069000     -0.016785000      0.653406000
6       -1.498063000      0.738452000      0.083514000
8       -3.162476000     -0.861137000     -0.530289000
8       -2.430165000      1.716300000     -0.114208000
6        2.161865000      0.284862000      1.018629000
6        3.166381000     -0.209158000     -0.028304000
7        2.839541000      0.330817000     -1.376333000
1        2.849026000      1.358122000     -1.396175000
1        3.503354000     -0.003076000     -2.086928000
1        1.899330000      0.028491000     -1.675538000
1       -1.340000000     -2.649822000     -0.062740000
1        0.101357000      2.063126000      0.636350000
1        0.971161000     -2.184901000      0.660773000
1       -3.622842000      0.001218000     -0.570328000
1       -2.123450000      2.544319000      0.294236000
1        2.384223000     -0.177173000      1.988098000
1        2.292698000      1.365763000      1.155292000
1        4.180086000      0.125506000      0.210995000
1        3.163797000     -1.299249000     -0.122765000
29      -4.662617206      1.986304433     -1.206570007
29      -5.791422205      1.651930713     -3.823166629
29      -5.965478890     -0.345780697     -1.844073734
29      -7.421314171      1.651930713     -0.492168394
29      -4.971158826      4.151290467     -2.982814535
29      -6.254435557      4.151290466     -0.360191311
29      -7.691094336      3.478461552     -2.688435260
29      -8.365478893      0.836720256     -3.018418615
*

$new_job

! PBE D3 def2-TZVP opt PModel NOAUTOSTART cpcm(water)

%pal nprocs=16 end
%geom maxiter=200 end
%base "5_M0005"

* xyz 1 1
6       -1.447298000     -1.576422000     -0.061973000
6       -0.169383000      0.884365000      0.349737000
6       -2.169412000     -0.391810000     -0.118145000
6       -0.072080000     -1.529517000      0.197274000
6        0.578034000     -0.300566000      0.405171000
6       -1.530497000      0.826281000      0.084998000
8       -3.511232000     -0.368283000     -0.369633000
8       -2.237172000      1.991738000      0.025145000
6        2.060437000     -0.243537000      0.661100000
6        2.818311000      0.182206000     -0.594606000
7        4.274374000      0.267683000     -0.306472000
1        4.660055000     -0.636004000     -0.002273000
1        4.794889000      0.555021000     -1.146349000
1        4.476642000      0.960680000      0.426877000
1       -1.931280000     -2.536898000     -0.214013000
1        0.285365000      1.857301000      0.516584000
1        0.478661000     -2.467543000      0.242972000
1       -3.833228000     -1.283417000     -0.448416000
1       -3.161473000      1.716606000     -0.147217000
1        2.419916000     -1.221713000      1.004746000
1        2.255936000      0.456752000      1.483363000
1        2.699168000     -0.540426000     -1.408302000
1        2.513296000      1.172218000     -0.948103000
29      -5.336564099      1.311779495     -0.678749063
29      -6.946456149      2.314008998     -2.831971765
29      -7.845483539      0.278686683     -1.103629172
29      -7.565646636      2.314008998      0.824351552
29      -4.680957860      3.684896485     -2.048385253
29      -5.168470381      3.684896486      0.830378941
29      -7.159903549      4.501484849     -0.987527676
29      -9.290439039      2.806456428     -1.348329277
*



