# opt in PBE-D3/def2tzvp

! M062X TightSCF def2-TZVP slowconv PModel cpcm(water) 

%tddft
 nroots 12
 maxdim 60
 triplets false
end

%output
Print[ P_Basis ] 2
Print[ P_MOs ] 1
end

%pal nprocs=16 end
%base "neutral"
*xyz 0 1
  C   -0.50330888339685     -0.36622989460744     -1.50264592604726
  C   -2.08220337085055      1.45481402304829     -0.06812263994748
  C   -1.80478312739886     -0.08127567823641     -1.93219256435024
  C   0.02771387494132      0.22243073067180     -0.34928021631862
  C   -0.77081250790830      1.14451288174966      0.36906287978685
  C   -2.60086274180758      0.81754881455444     -1.20534491481846
  O   -3.93000293075932      1.01004866621818     -1.53116279257847
  O   -2.40206796189385     -0.65842136101786     -3.01421913203989
  C   1.39387267229053     -0.15067008683338      0.15253581285128
  C   1.35957540527774     -1.13904336061899      1.34403917491920
  N   0.77234944595458     -2.45369470517789      1.08553039173842
  H   0.09314121133948     -1.08362183538547     -2.07199435092125
  H   -2.67720481474820      2.22213236791043      0.42873932225945
  H   -0.34034363863357      1.69933963761379      1.20501627535282
  H   -4.10839916128766      0.55201363817625     -2.38002371417251
  H   -1.79311763517766     -1.29466335518302     -3.43516189242892
  H   1.93039616252341      0.75523251442089      0.47940332055347
  H   1.97851299265438     -0.60359592094812     -0.66355968776678
  H   2.39499678024301     -1.27387444688959      1.69691129350418
  H   0.79251637060131     -0.67960489909142      2.17095326918672
  H   1.14109143115258     -2.84013479588932      0.21153854652907
  H   -0.24664063115729     -2.36030645719540      0.96245736474229
  Cu  -3.00025521761018     -2.44988420026147      0.59294000534601
  Cu  -5.29255333398898     -2.53787684776617      1.43305228355980
  Cu  -3.61342327413388     -4.18379486559173      2.16449734402685
  Cu  -2.42318030050520     -2.14595805255506      2.92301911427386
  Cu  -4.55784937849428     -0.61968620123656      0.12569397684079
  Cu  -2.15515865024177     -0.26306947668903      1.36468277622633
  Cu  -4.26967157164219     -0.64060532593970      2.54896875502006
  Cu  -4.68115374634185     -2.67287125524958      3.81450566467241
*



$new_job

! M062X TightSCF def2-TZVP slowconv PModel cpcm(water) 

%tddft
 nroots 12
 maxdim 60
 triplets false
end

%output
Print[ P_Basis ] 2
Print[ P_MOs ] 1
end

%pal nprocs=16 end
%base "protonated"
*xyz 1 1
  C   -1.97220441321260     -1.31120570725444      0.74032310827642
  C   -0.67397615987391      1.16304160530379      1.04840877997570
  C   -2.55454423875750     -0.32090781106778      1.55203628854540
  C   -0.70158965696686     -1.09307066773160      0.15275754447226
  C   -0.03272447369643      0.13326040298857      0.31265038670954
  C   -1.90144878278867      0.92126693635707      1.70404987076505
  O   -3.73602061611575     -0.56912342918582      2.16713095116780
  O   -2.52433627881176      1.81538101445881      2.51572843919968
  C   1.36692312647140      0.33099272365631     -0.21882200376586
  C   1.48072528154250      1.03053224642724     -1.57062177613114
  N   0.88138299380964      0.21518234931327     -2.67361083490760
  H   -0.17219016403443      0.20463381553439     -2.59748096732028
  H   1.10182592642076      0.61801651653242     -3.59406112037779
  H   1.21924247391135     -0.75722021121362     -2.66435432237824
  H   -2.44021954653629     -2.29755817778567      0.70291854753858
  H   -0.13003122894934      2.08460002015802      1.28261864110343
  H   -0.20753178842755     -1.91590676553676     -0.36666147402638
  H   -4.01410821698268      0.23840907542751      2.64663932434709
  H   -2.02143484970320      2.65206530161477      2.54967206018690
  H   1.87054023625176     -0.64632451044744     -0.28043643075765
  H   1.94300848121579      0.94147880626622      0.49212335695785
  H   0.94951307535143      1.99333559956136     -1.57662318249208
  H   2.53325145430755      1.19837654526213     -1.82731095942783
  Cu  -3.31459288810556      3.11906781575107     -2.33220300511889
  Cu  -2.18672884272025      1.11265918987297     -3.00629494031618
  Cu  -1.78450562033125      1.93541257255832     -0.74947577524553
  Cu  -4.13894292400778      1.26571068530770     -0.99559061303269
  Cu  -3.84060866847112      1.96028525724995     -4.50990769187330
  Cu  -5.54905581266511      2.07508655278528     -2.75730162128762
  Cu  -4.28079271188338     -0.04774973445260     -3.03394274964025
  Cu  -2.55282756324043     -0.59548487571163     -1.30905238814621 
*



$new_job

! M062X TightSCF def2-TZVP slowconv PModel cpcm(water) 

%tddft
 nroots 12
 maxdim 60
 triplets false
end

%output
Print[ P_Basis ] 2
Print[ P_MOs ] 1
end

%pal nprocs=16 end
%base "deprotonated"
*xyz -1 1
  O   3.11174070127461     -0.74512211692160      0.19164228672741
  O   3.46096605384020      1.95088288771178     -0.76444809675975
  N   -3.74551041412432     -1.19919783609113     -0.18753068482735
  C   -1.69831254335940      0.01006704090060      0.72952743546964
  C   -0.32940715112606      0.53484910720576      0.37864257224324
  C   -2.40387850980546     -0.66652305633904     -0.46294327772074
  C   0.80137200065251     -0.29598363820847      0.44749609511843
  C   -0.14258741066237      1.84335802311049     -0.08661755591140
  C   2.07155789131901      0.14513749386897      0.07234213112170
  C   1.12360169667964      2.29680502693582     -0.46692406014038
  C   2.27590483645565      1.47851203581250     -0.40788623465802
  H   -2.33795810038276      0.83499823937472      1.08632797864620
  H   -1.62855072568327     -0.72422108099774      1.55016032070355
  H   -1.77273616948223     -1.49235751995061     -0.83006602336525
  H   -2.48350656874187      0.05943565726744     -1.28874768348394
  H   0.70346519756935     -1.32359491610839      0.81089872299763
  H   -0.99919167700051      2.52054257916124     -0.15087040298955
  H   1.25663657272168      3.32251471933703     -0.82184053374853
  H   -4.33776812520380     -0.44038913126633      0.16369003552812
  H   -3.68462868624204     -1.87010487181190      0.58459637323787
  H   3.96800500042919     -0.30610929174625     -0.08015133970397
  Cu  5.19730745206526      1.15921913012777     -1.13554030745047
  Cu  6.51582087990282     -0.95356285320093     -0.87074930191740
  Cu  5.87496620764357     -0.33287830801256     -3.07652606401113
  Cu  7.46461387503382      1.15414774025198     -2.12693664183398
  Cu  6.32381462673372      0.41154915401691      1.04202459576269
  Cu  7.23153283560436      2.38530826880656     -0.13269778869411
  Cu  8.51794147829976      0.23440203709149     -0.13355189199597
  Cu  8.50446231758876     -1.01348481932616     -2.24635310934454
*



$new_job

! M062X TightSCF def2-TZVP slowconv PModel cpcm(water) 

%tddft
 nroots 12
 maxdim 60
 triplets false
end

%output
Print[ P_Basis ] 2
Print[ P_MOs ] 1
end

%pal nprocs=16 end
%base "2x_deprotonated"
*xyz -2 1
  O   3.04252167807346     -0.60100765100403      1.34794418959035
  O   3.40061837222438      2.27711853768435      1.11597858456970
  N   -3.69485469552169     -1.03447248568005      0.14264579205821
  C   -1.40771485957149     -0.25256366155450     -0.66952912074105
  C   -0.11551014771213      0.40506159504458     -0.25107893640276
  C   -2.41115138528403     -0.40558960067887      0.49009084248675
  C   0.91915418470979     -0.34526922640920      0.33436992060231
  C   0.07476823785298      1.78583268599242     -0.37669386990762
  C   2.13351027570644      0.20830426336887      0.79559941140521
  C   1.26484148408182      2.37542301660213      0.07234076034527
  C   2.31623971540264      1.64447785944520      0.66628194419705
  H   -1.88986430414712      0.34044275915463     -1.46557814658166
  H   -1.21239658234746     -1.25561574329811     -1.08736029678475
  H   -2.61885656411960      0.58989650772907      0.91585486834038
  H   -1.94361870946845     -0.99970694005560      1.29232857074677
  H   0.80285133102435     -1.42986478204164      0.44102321643562
  H   -0.70399724498264      2.40544569521174     -0.83147906530591
  H   1.41148066893320      3.45575695822920     -0.02761800003850
  H   -3.51030887056985     -1.95811257631446     -0.26109549501020
  H   -4.13114806861177     -0.49696285015681     -0.61297797594341
  Cu  5.28040001900637      2.11977990468594      0.61588589763920
  Cu  6.84442314482871      0.89803001715146      2.13746412618370
  Cu  4.92590846906660     -0.31217655348456      1.32646675074395
  Cu  6.55161134608818      0.23748959436844     -0.38577273707687
  Cu  7.58990333935712      2.99008551576189      1.41158459915164
  Cu  7.28013324243651      2.39273016658559     -0.92119630170154
  Cu  8.72700153036345      0.91681979545182      0.53945280398708
  Cu  7.50115836218004     -1.19592048078955      1.24409373201107
*



$new_job

! M062X TightSCF def2-TZVP slowconv PModel cpcm(water) 

%tddft
 nroots 12
 maxdim 60
 triplets false
end

%output
Print[ P_Basis ] 2
Print[ P_MOs ] 1
end

%pal nprocs=16 end
%base "zwitterione"
*xyz 0 1
  O   3.57504252884633     -1.09260703725889      0.88562656323491
  C   2.62658920254499     -0.33693333481921      0.24760324613052
  C   1.33930000059173     -0.86231746098964      0.15428229806165
  C   0.29781200007463     -0.16529068429121     -0.48292576081996
  C   -1.10032317548334     -0.73450960510712     -0.51422995433639
  C   -1.83497487397462     -0.53955667356452      0.81174933659681
  N   -1.91833356455485      0.92440162137791      1.13901637364945
  H   -2.24974877898832      1.08751317456119      2.09828000411261
  H   -0.98423345505479      1.35656360183470      1.03541541141395
  H   -2.55548373199698      1.41563412499466      0.49686956254106
  C   0.58760825248126      1.09399889172577     -1.02518201296071
  C   1.87542369167732      1.63200477633998     -0.93532582734841
  C   2.94087565595028      0.95205408040268     -0.30171687448318
  O   4.14179949766916      1.49415091288356     -0.22189329358269
  H   4.45678689924197     -0.61966756383682      0.86873014165492
  H   1.15285623068247     -1.84752743860226      0.59188109315713
  H   -1.68461267164760     -0.26669002045962     -1.32248937042811
  H   -1.08438708033445     -1.81728240559020     -0.71089197793702
  H   -2.86203398383191     -0.92249730325262      0.78285001705866
  H   -1.29280302083413     -1.01211462422154      1.63979228124072
  H   -0.19832571325489      1.65629171532644     -1.53742869299979
  H   2.09220822900250      2.61260454232676     -1.36659212153272
  Cu  5.93846383649302      0.79388516901424      0.08403415212838
  Cu  7.18087080735988     -1.21662271339167      0.88576874948072
  Cu  7.29747568574532     -0.71723441562726     -1.44036419443848
  Cu  8.40445871406609      0.90431841041682     -0.10680814481733
  Cu  6.31176462600125      0.20616609673883      2.55522323335169
  Cu  7.45868131065272      2.18676184158608      1.63311288538395
  Cu  8.77533449063380      0.11481339061490      2.16434922087464
  Cu  9.51014508324092     -1.21092417113198      0.23039880861300
*
