! PBE D3 def2-TZVP opt numfreq 
%base "4_2x_deprotonated"
%pal nprocs=3 end
%geom maxiter=75 end
*xyz -2 2
  O   -2.09788163153052     -2.09890986008133      0.20561768850800
  O   -3.43690287443130      0.37458169620901     -0.37464055445547
  N   2.74714851387580     -0.95738441674978     -1.24122002944174
  C   2.13910901353866      0.33244031575048      0.88692805166422
  C   0.66242850411439      0.32031993890838      0.59935381178182
  C   3.01956342883086      0.21381426472055     -0.38028748478801
  C   -0.07286728548965     -0.88834056591598      0.52859156778620
  C   -0.00567034371434      1.51558448488413      0.30757503220741
  C   -1.46766849762815     -0.98686053429398      0.19817843068186
  C   -1.36909288196453      1.48096198014225     -0.06238257425885
  C   -2.14021292253490      0.30227613396050     -0.12214315450453
  H   2.42696125865013      1.27889690642109      1.38985372013362
  H   2.41252824514135     -0.49364144392451      1.57669826351066
  H   4.09098102647745      0.19484279018232     -0.09005044494918
  H   2.85393692856106      1.10682566193406     -1.00657822854648
  H   0.40357373483966     -1.83583963943646      0.81871314336350
  H   0.54140349782036      2.46747611941164      0.34270971710257
  H   -1.90486312789269      2.41256698903317     -0.28832715820589
  H   1.71905523181981     -0.94182293150767     -1.35818663910314
  H   2.89661676242031     -1.79817688472750     -0.66989936325279
  Cu  -4.35099658090380     -0.87053100492038     -1.51419379523374
*