! PBE D3 def2-TZVP opt PModel
%pal nprocs=16 end
%geom maxiter=150 end
%base "1_M0018"
*xyz 1 2
6       -0.074381000     -1.017724000     -0.365733000
6       -1.104295000      1.582582000     -0.145174000
6       -1.404297000     -0.807838000     -0.028468000
6        0.764127000      0.082008000     -0.598285000
6        0.237318000      1.380673000     -0.485702000
6       -1.918680000      0.480698000      0.082127000
8       -3.237740000      0.612654000      0.417989000
8       -2.212182000     -1.885801000      0.196219000
6        2.216363000     -0.129253000     -0.958825000
6        3.082353000     -0.623390000      0.210232000
7        3.177358000      0.336596000      1.311590000
1        0.300199000     -2.034529000     -0.445753000
1       -1.486399000      2.594964000     -0.065194000
1        0.872918000      2.245792000     -0.664027000
1       -3.446612000      1.561874000      0.452057000
1       -3.082382000     -1.496456000      0.413871000
1        2.639984000      0.798710000     -1.364264000
1        2.266265000     -0.859784000     -1.776551000
1        2.697246000     -1.571127000      0.602530000
1        4.094823000     -0.820415000     -0.159063000
1        2.243593000      0.479729000      1.700370000
1        3.467199000      1.243717000      0.950192000
29      -4.666608517     -0.596526175      0.859401095
*

$new_job
%pal nprocs=16 end
%geom maxiter=150 end
%base "2_M0016"
! PBE D3 def2-TZVP opt PModel NOAUTOSTART
*xyz 1 2
6       -0.046652000     -0.911071000     -0.532758000
6       -1.135871000      1.590984000      0.120364000
6       -1.381293000     -0.790692000     -0.171165000
6        0.766734000      0.230357000     -0.570469000
6        0.210423000      1.479188000     -0.241853000
6       -1.925139000      0.448711000      0.153453000
8       -3.247017000      0.492122000      0.501091000
8       -2.163985000     -1.909307000     -0.134001000
6        2.225367000      0.115784000     -0.948125000
6        3.187017000      0.283614000      0.238177000
7        3.056643000     -0.765978000      1.249695000
1        0.350146000     -1.891510000     -0.780768000
1       -1.540199000      2.566466000      0.369856000
1        0.828192000      2.374941000     -0.266569000
1       -3.475863000      1.416560000      0.698663000
1       -3.044027000     -1.580947000      0.138402000
1        2.448055000      0.881624000     -1.702239000
1        2.410633000     -0.847709000     -1.440388000
1        4.216463000      0.270880000     -0.136514000
1        3.036819000      1.255781000      0.720669000
1        3.152908000     -1.679303000      0.806926000
1        2.104875000     -0.748710000      1.621641000
29      -4.677440079     -0.770310662      0.681435496
*

$new_job
%pal nprocs=16 end
%geom maxiter=150 end
%base "3_M0017"
! PBE D3 def2-TZVP opt PModel NOAUTOSTART
*xyz 1 2
6       -0.096290000     -0.980680000     -0.380034000
6       -1.093748000      1.628719000     -0.119334000
6       -1.426063000     -0.761674000     -0.034967000
6        0.753785000      0.116531000     -0.597470000
6        0.242883000      1.419760000     -0.465428000
6       -1.916883000      0.534394000      0.093448000
8       -3.223537000      0.738544000      0.432986000
8       -2.294151000     -1.794580000      0.190192000
6        2.204965000     -0.098569000     -0.963399000
6        3.061932000     -0.647382000      0.187695000
7        3.161017000      0.263425000      1.328196000
1        0.289586000     -1.990431000     -0.482505000
1       -1.488408000      2.634977000     -0.017445000
1        0.883530000      2.283311000     -0.631270000
1       -3.593589000     -0.161702000      0.527334000
1       -1.807899000     -2.628635000      0.073169000
1        2.641810000      0.838598000     -1.331885000
1        2.246887000     -0.798253000     -1.808050000
1        2.665647000     -1.606474000      0.539090000
1        4.073806000     -0.840366000     -0.185405000
1        2.224215000      0.433815000      1.699234000
1        3.495319000      1.172886000      1.011874000
29      -4.661769349     -1.994189117      0.935539996
*

$new_job
%pal nprocs=16 end
%geom maxiter=150 end
%base "4_M0019"
! PBE D3 def2-TZVP opt PModel NOAUTOSTART
*xyz 1 2
6       -0.097842000     -0.920923000     -0.507016000
6       -1.088360000      1.633502000      0.099122000
6       -1.428703000     -0.744990000     -0.141290000
6        0.756518000      0.192278000     -0.571721000
6        0.248624000      1.467925000     -0.268154000
6       -1.915788000      0.523640000      0.159826000
8       -3.223202000      0.684992000      0.518892000
8       -2.301868000     -1.795143000     -0.062972000
6        2.207753000      0.023049000     -0.960862000
6        3.195356000      0.258187000      0.192596000
7        3.050100000     -0.699765000      1.289265000
1        0.284043000     -1.909754000     -0.741520000
1       -1.479477000      2.618504000      0.334658000
1        0.893223000      2.343263000     -0.316124000
1       -3.596815000     -0.218147000      0.490285000
1       -1.826082000     -2.604210000     -0.317039000
1        2.430202000      0.726552000     -1.773489000
1        2.368378000     -0.977823000     -1.382028000
1        4.216832000      0.180995000     -0.195948000
1        3.085180000      1.271284000      0.594843000
1        3.090981000     -1.649669000      0.924310000
1        2.118048000     -0.597443000      1.694836000
29      -3.977946484     -1.581569348      0.333256890
*

$new_job
%pal nprocs=16 end
%geom maxiter=150 end
%base "5_M0009"
! PBE D3 def2-TZVP opt PModel NOAUTOSTART
*xyz 1 2
6       -0.049461000     -0.828565000     -0.561212000
6       -1.172466000      1.627940000      0.197374000
6       -1.385624000     -0.747650000     -0.184629000
6        0.742258000      0.331521000     -0.562141000
6        0.170509000      1.557196000     -0.178807000
6       -1.939028000      0.473028000      0.191172000
8       -3.251769000      0.541284000      0.560998000
8       -2.197998000     -1.848023000     -0.165013000
6        2.201740000      0.257709000     -0.950510000
6        3.155311000      0.222943000      0.252043000
7        3.032140000     -1.008935000      1.033705000
1        0.391890000     -1.778825000     -0.848292000
1       -1.615604000      2.574160000      0.491949000
1        0.769067000      2.465545000     -0.172506000
1       -3.575698000     -0.377350000      0.474120000
1       -1.673244000     -2.611967000     -0.460856000
1        2.440663000      1.130512000     -1.571924000
1        2.374118000     -0.616184000     -1.592177000
1        4.185601000      0.294398000     -0.113247000
1        2.980476000      1.084018000      0.907054000
1        2.091859000     -1.052374000      1.430225000
1        3.664593000     -0.960214000      1.832092000
29      -4.381425810     -2.099040794      0.380515488
*
