! PBE D3 def2-TZVP opt numfreq 
%base "5_zwitterion"
%pal nprocs=2 end
%geom maxiter=75 end
*xyz 0 2
O      2.73505   -2.10741    0.20340
C      1.96090   -1.01083   -0.06068
C      0.67426   -1.11664   -0.55996
C     -0.10629    0.02665   -0.87653
C     -1.59079   -0.09092   -1.04140
C     -2.22313   -0.30878    0.36307
N     -1.51901    0.62288    1.31690
H     -1.30920    0.20045    2.22537
H     -0.57472    0.85780    0.78047
H     -2.03295    1.49672    1.46742
C      0.48330    1.29252   -0.63537
C      1.77356    1.41768   -0.11556
C      2.59717    0.28597    0.24451
O      3.73892    0.36553    0.74988
H      2.24778   -2.89566   -0.09671
H      0.24826   -2.11589   -0.72898
H     -2.01031    0.82093   -1.49692
H     -1.89487   -0.94154   -1.67070
H     -3.30535   -0.12360    0.41208
H     -2.01269   -1.32725    0.70894
H     -0.07431    2.19454   -0.92022
H      2.22018    2.40436    0.02256
Cu     5.38696   -1.58013    1.28796
*