! PBE D3 def2-TZVP opt 

%base "M0002"
%pal nprocs=8 end
%geom maxiter=75 end
* xyz -2 1
O       -2.031037     -2.062449     -0.049321
O       -3.307150      0.599768     -0.503427
N        2.925979      0.077175     -1.435707
C        2.153620      0.147371      0.963706
C        0.699293      0.250785      0.602187
C        3.015942     -0.544013     -0.105473
C       -0.084508     -0.900396      0.442535
C        0.094415      1.478147      0.401001
C       -1.458703     -0.912270      0.065928
C       -1.251647      1.527268      0.034471
C       -2.083157      0.389278     -0.155479
H        2.560882      1.148697      1.155720
H        2.243050     -0.399729      1.910689
H        2.747056     -1.602590     -0.194985
H        4.062616     -0.511037      0.216663
H        0.376102     -1.873851      0.608721
H        0.639013      2.405862      0.514153
H       -1.706353      2.504030     -0.122715
H        2.786392      1.080241     -1.306495
H        2.003359     -0.207406     -1.803065
*

$new_job

%base "M0001"
%pal nprocs=8 end
%geom maxiter=75 end
* xyz -2 1
O       -2.053517     -2.034373      0.185438
O       -3.299854      0.572811     -0.572818
N        2.860805     -0.833072     -1.237455
C        2.152337      0.220042      0.941851
C        0.697822      0.310851      0.581319
C        3.082832      0.258048     -0.280072
C       -0.098603     -0.842826      0.551432
C        0.112931      1.512149      0.227344
C       -1.470338     -0.883949      0.171908
C       -1.232297      1.533165     -0.145563
C       -2.078509      0.390321     -0.200609
H        2.404826      1.051022      1.612914
H        2.339631     -0.693917      1.520319
H        4.119799      0.198321      0.068402
H        2.980176      1.212058     -0.809753
H        0.351118     -1.796109      0.827513
H        0.673739      2.437076      0.225255
H       -1.673913      2.489310     -0.421814
H        1.923336     -0.670522     -1.640807
H        2.685580     -1.690041     -0.706467
*

$new_job

%base "M0003"
%pal nprocs=8 end
%geom maxiter=75 end
* xyz -2 1
O        2.114611     -2.026864      0.172957
O        3.292629      0.696394      0.521424
N       -3.095376      0.385734      1.278702
C       -2.126657     -0.018000     -1.001073
C       -0.676513      0.160651     -0.644025
C       -2.962669     -0.567884      0.165257
C        0.143654     -0.954433     -0.416033
C       -0.118767      1.415902     -0.489614
C        1.508733     -0.902964     -0.011849
C        1.218352      1.527451     -0.102381
C        2.084209      0.428309      0.158469
H       -2.554110      0.929990     -1.351901
H       -2.192610     -0.710250     -1.850145
H       -2.524436     -1.498260      0.544364
H       -3.968741     -0.808396     -0.194728
H       -0.282247     -1.949428     -0.542024
H       -0.697965      2.315911     -0.648574
H        1.635879      2.525772      0.018248
H       -2.148160      0.757196      1.442609
H       -3.279933     -0.153105      2.123681
*

$new_job

%base "M0006"
%pal nprocs=8 end
%geom maxiter=75 end
* xyz -2 1
O       -2.005938     -2.061962      0.225043
O       -3.326877      0.482115     -0.614452
N        3.035492     -1.020148     -0.980444
C        2.132501      0.350235      0.923363
C        0.669325      0.377497      0.576988
C        3.024104      0.295567     -0.327293
C       -0.091260     -0.799941      0.579212
C        0.045428      1.550263      0.190850
C       -1.458698     -0.894462      0.188445
C       -1.297297      1.519725     -0.189749
C       -2.104671      0.349258     -0.223967
H        2.373400      1.255716      1.495247
H        2.354637     -0.490875      1.592252
H        4.055070      0.532204     -0.043029
H        2.706982      1.054219     -1.052586
H        0.387655     -1.729530      0.886964
H        0.576366      2.492356      0.166125
H       -1.767071      2.454022     -0.492627
H        3.130695     -0.876369     -1.984446
H        2.079749     -1.400785     -0.896615
*

$new_job

%base "M0005"
%pal nprocs=8 end
%geom maxiter=75 end
* xyz -2 1
O        2.289029     -2.042674      0.054462
O        3.516138      0.665485      0.348449
N       -4.279682     -0.192325      0.379319
C       -2.027849      0.017064     -0.649438
C       -0.558856      0.176640     -0.393879
C       -2.838915     -0.021300      0.651254
C        0.269135     -0.948151     -0.273228
C        0.017515      1.424686     -0.247608
C        1.671806     -0.912385     -0.022880
C        1.388411      1.520479     -0.000310
C        2.271841      0.411664      0.121713
H       -2.374330      0.841684     -1.286424
H       -2.201129     -0.899018     -1.229379
H       -2.700193      0.907177      1.216567
H       -2.503115     -0.843239      1.293601
H       -0.175601     -1.937490     -0.377355
H       -0.567623      2.331489     -0.320954
H        1.822526      2.512975      0.108810
H       -4.388116     -1.083697     -0.104346
H       -4.554502      0.521729     -0.292789
*



