! PBE D3 def2-TZVP opt PModel
%pal nprocs=16 end
%geom maxiter=150 end
%base "1_M0018"
*xyz 0 1
  C        -0.115287930979     -1.018820290365     -0.566066381614
  C        -1.041794135158      1.562919264592     -0.124496952456
  C        -1.460098688122     -0.826029285344     -0.244176168605
  C         0.778389374750      0.053334714002     -0.680429870307
  C         0.299838014726      1.350044710312     -0.450203017374
  C        -1.916636922990      0.487112154486     -0.031948683215
  O        -3.276952940969      0.651157840404      0.245592088736
  O        -2.274241136582     -1.915131459821     -0.169042428388
  C         2.234389467053     -0.200940465757     -0.965211009616
  C         3.034347764331     -0.560793126974      0.310346166376
  N         3.080649066424      0.456077323268      1.357423639262
  H         0.221724163822     -2.044283390558     -0.731537932893
  H        -1.414828028442      2.577290655657      0.042393867952
  H         0.974447199591      2.202923952519     -0.537963976637
  H        -3.454767295597      1.598002753197      0.401038885353
  H        -3.146678124508     -1.658577155444      0.220588045248
  H         2.685399613384      0.692949663360     -1.426530858046
  H         2.337942231078     -1.025191656192     -1.690073595220
  H         2.608841435832     -1.477996093026      0.748723487278
  H         4.069521748263     -0.802679485176      0.021364272267
  H         2.129997965414      0.706238314617      1.641731065928
  H         3.507448703133      1.313214679879      0.997594854524
  Cu       -5.371457902394      1.179297892558      0.914566643932
  Cu       -4.409648779234      2.793841034090      0.672244670549
*

$new_job
%pal nprocs=16 end
%geom maxiter=150 end
%base "2_M0016"
! PBE D3 def2-TZVP opt PModel NOAUTOSTART
*xyz 0 1
  C        -0.046652000000     -0.911071000000     -0.532758000000
  C        -1.135871000000      1.590984000000      0.120364000000
  C        -1.381293000000     -0.790692000000     -0.171165000000
  C         0.766734000000      0.230357000000     -0.570469000000
  C         0.210423000000      1.479188000000     -0.241853000000
  C        -1.925139000000      0.448711000000      0.153453000000
  O        -3.247017000000      0.492122000000      0.501091000000
  O        -2.163985000000     -1.909307000000     -0.134001000000
  C         2.225367000000      0.115784000000     -0.948125000000
  C         3.187017000000      0.283614000000      0.238177000000
  N         3.056643000000     -0.765978000000      1.249695000000
  H         0.350146000000     -1.891510000000     -0.780768000000
  H        -1.540199000000      2.566466000000      0.369856000000
  H         0.828192000000      2.374941000000     -0.266569000000
  H        -3.475863000000      1.416560000000      0.698663000000
  H        -3.044027000000     -1.580947000000      0.138402000000
  H         2.448055000000      0.881624000000     -1.702239000000
  H         2.410633000000     -0.847709000000     -1.440388000000
  H         4.216463000000      0.270880000000     -0.136514000000
  H         3.036819000000      1.255781000000      0.720669000000
  H         3.152908000000     -1.679303000000      0.806926000000
  H         2.104875000000     -0.748710000000      1.621641000000
  Cu       -4.569246488238     -0.327005979200      0.677271470289
  Cu       -4.613911832136      1.521489922926      1.170688441512
*

$new_job
%pal nprocs=16 end
%geom maxiter=150 end
%base "3_M0017"
! PBE D3 def2-TZVP opt PModel NOAUTOSTART
*xyz 0 1
  C        -0.096290000000     -0.980680000000     -0.380034000000
  C        -1.093748000000      1.628719000000     -0.119334000000
  C        -1.426063000000     -0.761674000000     -0.034967000000
  C         0.753785000000      0.116531000000     -0.597470000000
  C         0.242883000000      1.419760000000     -0.465428000000
  C        -1.916883000000      0.534394000000      0.093448000000
  O        -3.223537000000      0.738544000000      0.432986000000
  O        -2.294151000000     -1.794580000000      0.190192000000
  C         2.204965000000     -0.098569000000     -0.963399000000
  C         3.061932000000     -0.647382000000      0.187695000000
  N         3.161017000000      0.263425000000      1.328196000000
  H         0.289586000000     -1.990431000000     -0.482505000000
  H        -1.488408000000      2.634977000000     -0.017445000000
  H         0.883530000000      2.283311000000     -0.631270000000
  H        -3.593589000000     -0.161702000000      0.527334000000
  H        -1.807899000000     -2.628635000000      0.073169000000
  H         2.641810000000      0.838598000000     -1.331885000000
  H         2.246887000000     -0.798253000000     -1.808050000000
  H         2.665647000000     -1.606474000000      0.539090000000
  H         4.073806000000     -0.840366000000     -0.185405000000
  H         2.224215000000      0.433815000000      1.699234000000
  H         3.495319000000      1.172886000000      1.011874000000
  Cu       -4.097936026208      2.295618437433      1.227646193287
  Cu       -5.384115232419      0.572568381120      1.309877062116
*

$new_job
%pal nprocs=16 end
%geom maxiter=150 end
%base "4_M0019"
! PBE D3 def2-TZVP opt PModel NOAUTOSTART
*xyz 0 1
  C        -0.097842000000     -0.920923000000     -0.507016000000
  C        -1.088360000000      1.633502000000      0.099122000000
  C        -1.428703000000     -0.744990000000     -0.141290000000
  C         0.756518000000      0.192278000000     -0.571721000000
  C         0.248624000000      1.467925000000     -0.268154000000
  C        -1.915788000000      0.523640000000      0.159826000000
  O        -3.223202000000      0.684992000000      0.518892000000
  O        -2.301868000000     -1.795143000000     -0.062972000000
  C         2.207753000000      0.023049000000     -0.960862000000
  C         3.195356000000      0.258187000000      0.192596000000
  N         3.050100000000     -0.699765000000      1.289265000000
  H         0.284043000000     -1.909754000000     -0.741520000000
  H        -1.479477000000      2.618504000000      0.334658000000
  H         0.893223000000      2.343263000000     -0.316124000000
  H        -3.596815000000     -0.218147000000      0.490285000000
  H        -1.826082000000     -2.604210000000     -0.317039000000
  H         2.430202000000      0.726552000000     -1.773489000000
  H         2.368378000000     -0.977823000000     -1.382028000000
  H         4.216832000000      0.180995000000     -0.195948000000
  H         3.085180000000      1.271284000000      0.594843000000
  H         3.090981000000     -1.649669000000      0.924310000000
  H         2.118048000000     -0.597443000000      1.694836000000
  Cu       -3.941844444553     -2.442118151087      0.504270649342
  Cu       -2.858056568642     -3.668237463893      0.028173621552
*

$new_job
%pal nprocs=16 end
%geom maxiter=150 end
%base "5_M0009"
! PBE D3 def2-TZVP opt PModel NOAUTOSTART
*xyz 0 1
  C        -0.049461000000     -0.828565000000     -0.561212000000
  C        -1.172466000000      1.627940000000      0.197374000000
  C        -1.385624000000     -0.747650000000     -0.184629000000
  C         0.742258000000      0.331521000000     -0.562141000000
  C         0.170509000000      1.557196000000     -0.178807000000
  C        -1.939028000000      0.473028000000      0.191172000000
  O        -3.251769000000      0.541284000000      0.560998000000
  O        -2.197998000000     -1.848023000000     -0.165013000000
  C         2.201740000000      0.257709000000     -0.950510000000
  C         3.155311000000      0.222943000000      0.252043000000
  N         3.032140000000     -1.008935000000      1.033705000000
  H         0.391890000000     -1.778825000000     -0.848292000000
  H        -1.615604000000      2.574160000000      0.491949000000
  H         0.769067000000      2.465545000000     -0.172506000000
  H        -3.575698000000     -0.377350000000      0.474120000000
  H        -1.673244000000     -2.611967000000     -0.460856000000
  H         2.440663000000      1.130512000000     -1.571924000000
  H         2.374118000000     -0.616184000000     -1.592177000000
  H         4.185601000000      0.294398000000     -0.113247000000
  H         2.980476000000      1.084018000000      0.907054000000
  H         2.091859000000     -1.052374000000      1.430225000000
  H         3.664593000000     -0.960214000000      1.832092000000
  Cu       -3.316360588651     -3.832319253260     -0.652883229526
  Cu       -3.960496722405     -2.030246784336      0.419011237343
*
