! PBE D3 def2-TZVP numfreq PModel NOAUTOSTART
%pal nprocs=16 end
%geom maxiter=150 end
%base "cu2"
*xyz 0 2
Cu      -2.630013769      0.000000000     -3.527558151
Cu      -2.630013769      0.000000000     -6.267558151
*
