! PBE D3 def2-TZVP numfreq PModel NOAUTOSTART
%pal nprocs=16 end
%geom maxiter=150 end
%base "cu2"
*xyz 0 2
  Cu 0 0 0 
  Cu 1 1 1 
*
