! PBE D3 def2-TZVP opt PModel
%pal nprocs=16 end
%geom maxiter=150 end
%base "1_M0002"
*xyz -2 2
  O        -2.031037000000     -2.062449000000     -0.049321000000
  O        -3.307150000000      0.599768000000     -0.503427000000
  N         2.925979000000      0.077175000000     -1.435707000000
  C         2.153620000000      0.147371000000      0.963706000000
  C         0.699293000000      0.250785000000      0.602187000000
  C         3.015942000000     -0.544013000000     -0.105473000000
  C        -0.084508000000     -0.900396000000      0.442535000000
  C         0.094415000000      1.478147000000      0.401001000000
  C        -1.458703000000     -0.912270000000      0.065928000000
  C        -1.251647000000      1.527268000000      0.034471000000
  C        -2.083157000000      0.389278000000     -0.155479000000
  H         2.560882000000      1.148697000000      1.155720000000
  H         2.243050000000     -0.399729000000      1.910689000000
  H         2.747056000000     -1.602590000000     -0.194985000000
  H         4.062616000000     -0.511037000000      0.216663000000
  H         0.376102000000     -1.873851000000      0.608721000000
  H         0.639013000000      2.405862000000      0.514153000000
  H        -1.706353000000      2.504030000000     -0.122715000000
  H         2.786392000000      1.080241000000     -1.306495000000
  H         2.003359000000     -0.207406000000     -1.803065000000
  Cu       -3.759951358256     -2.768962257264     -0.781548465391
  Cu       -1.860457550028     -4.063289549378     -0.259175594198
*

$new_job
%pal nprocs=16 end
%geom maxiter=150 end
%base "2_M0001"
! PBE D3 def2-TZVP opt PModel NOAUTOSTART
*xyz -2 2
  O        -2.053517000000     -2.034373000000      0.185438000000
  O        -3.299854000000      0.572811000000     -0.572818000000
  N         2.860805000000     -0.833072000000     -1.237455000000
  C         2.152337000000      0.220042000000      0.941851000000
  C         0.697822000000      0.310851000000      0.581319000000
  C         3.082832000000      0.258048000000     -0.280072000000
  C        -0.098603000000     -0.842826000000      0.551432000000
  C         0.112931000000      1.512149000000      0.227344000000
  C        -1.470338000000     -0.883949000000      0.171908000000
  C        -1.232297000000      1.533165000000     -0.145563000000
  C        -2.078509000000      0.390321000000     -0.200609000000
  H         2.404826000000      1.051022000000      1.612914000000
  H         2.339631000000     -0.693917000000      1.520319000000
  H         4.119799000000      0.198321000000      0.068402000000
  H         2.980176000000      1.212058000000     -0.809753000000
  H         0.351118000000     -1.796109000000      0.827513000000
  H         0.673739000000      2.437076000000      0.225255000000
  H        -1.673913000000      2.489310000000     -0.421814000000
  H         1.923336000000     -0.670522000000     -1.640807000000
  H         2.685580000000     -1.690041000000     -0.706467000000
  Cu       -4.014327400278     -2.875962285756     -0.328879568757
  Cu       -2.289362795404     -4.079519977218      0.195254131053
*

$new_job
%pal nprocs=16 end
%geom maxiter=150 end
%base "3_M0003"
! PBE D3 def2-TZVP opt PModel NOAUTOSTART
*xyz -2 2
  O         2.114611000000     -2.026864000000      0.172957000000
  O         3.292629000000      0.696394000000      0.521424000000
  N        -3.095376000000      0.385734000000      1.278702000000
  C        -2.126657000000     -0.018000000000     -1.001073000000
  C        -0.676513000000      0.160651000000     -0.644025000000
  C        -2.962669000000     -0.567884000000      0.165257000000
  C         0.143654000000     -0.954433000000     -0.416033000000
  C        -0.118767000000      1.415902000000     -0.489614000000
  C         1.508733000000     -0.902964000000     -0.011849000000
  C         1.218352000000      1.527451000000     -0.102381000000
  C         2.084209000000      0.428309000000      0.158469000000
  H        -2.554110000000      0.929990000000     -1.351901000000
  H        -2.192610000000     -0.710250000000     -1.850145000000
  H        -2.524436000000     -1.498260000000      0.544364000000
  H        -3.968741000000     -0.808396000000     -0.194728000000
  H        -0.282247000000     -1.949428000000     -0.542024000000
  H        -0.697965000000      2.315911000000     -0.648574000000
  H         1.635879000000      2.525772000000      0.018248000000
  H        -2.148160000000      0.757196000000      1.442609000000
  H        -3.279933000000     -0.153105000000      2.123681000000
  Cu        4.173974051809     -3.091041968336      0.906879031455
  Cu        2.145533420108     -4.374864777956      0.323088798839
*

$new_job
%pal nprocs=16 end
%geom maxiter=150 end
%base "4_M0006"
! PBE D3 def2-TZVP opt PModel NOAUTOSTART
*xyz -2 2
  O        -2.005938000000     -2.061962000000      0.225043000000
  O        -3.326877000000      0.482115000000     -0.614452000000
  N         3.035492000000     -1.020148000000     -0.980444000000
  C         2.132501000000      0.350235000000      0.923363000000
  C         0.669325000000      0.377497000000      0.576988000000
  C         3.024104000000      0.295567000000     -0.327293000000
  C        -0.091260000000     -0.799941000000      0.579212000000
  C         0.045428000000      1.550263000000      0.190850000000
  C        -1.458698000000     -0.894462000000      0.188445000000
  C        -1.297297000000      1.519725000000     -0.189749000000
  C        -2.104671000000      0.349258000000     -0.223967000000
  H         2.373400000000      1.255716000000      1.495247000000
  H         2.354637000000     -0.490875000000      1.592252000000
  H         4.055070000000      0.532204000000     -0.043029000000
  H         2.706982000000      1.054219000000     -1.052586000000
  H         0.387655000000     -1.729530000000      0.886964000000
  H         0.576366000000      2.492356000000      0.166125000000
  H        -1.767071000000      2.454022000000     -0.492627000000
  H         3.130695000000     -0.876369000000     -1.984446000000
  H         2.079749000000     -1.400785000000     -0.896615000000
  Cu       -3.627878820432     -3.126804922032     -0.221436875273
  Cu       -1.644165266925     -3.971733431608      0.728799977264
*

$new_job
%pal nprocs=16 end
%geom maxiter=150 end
%base "5_M0005"
! PBE D3 def2-TZVP opt PModel NOAUTOSTART
*xyz -2 2
  O         2.289029000000     -2.042674000000      0.054462000000
  O         3.516138000000      0.665485000000      0.348449000000
  N        -4.279682000000     -0.192325000000      0.379319000000
  C        -2.027849000000      0.017064000000     -0.649438000000
  C        -0.558856000000      0.176640000000     -0.393879000000
  C        -2.838915000000     -0.021300000000      0.651254000000
  C         0.269135000000     -0.948151000000     -0.273228000000
  C         0.017515000000      1.424686000000     -0.247608000000
  C         1.671806000000     -0.912385000000     -0.022880000000
  C         1.388411000000      1.520479000000     -0.000310000000
  C         2.271841000000      0.411664000000      0.121713000000
  H        -2.374330000000      0.841684000000     -1.286424000000
  H        -2.201129000000     -0.899018000000     -1.229379000000
  H        -2.700193000000      0.907177000000      1.216567000000
  H        -2.503115000000     -0.843239000000      1.293601000000
  H        -0.175601000000     -1.937490000000     -0.377355000000
  H        -0.567623000000      2.331489000000     -0.320954000000
  H         1.822526000000      2.512975000000      0.108810000000
  H        -4.388116000000     -1.083697000000     -0.104346000000
  H        -4.554502000000      0.521729000000     -0.292789000000
  Cu        2.249969924041     -4.234959931918     -0.036469907348
  Cu        4.651051845718     -2.846779528113      0.156475372089
*