! PBE D3 def2-TZVP opt PModel NOAUTOSTART cpcm(water)

%pal nprocs=16 end
%geom maxiter=200 end
%base "1_M0001"

* xyz 1 1
6       -1.224823000     -1.587242000      0.220921000
6       -0.017892000      0.791629000     -0.642482000
6       -1.950120000     -0.403966000      0.185336000
6        0.121085000     -1.577659000     -0.164105000
6        0.736243000     -0.388929000     -0.594533000
6       -1.345335000      0.773733000     -0.239305000
8       -3.261213000     -0.341801000      0.559007000
8       -2.048891000      1.941679000     -0.258944000
6        2.199890000     -0.366462000     -0.959628000
6        3.105051000     -0.278056000      0.271559000
7        2.816475000      0.949776000      1.061500000
1        1.843695000      0.946388000      1.405002000
1        3.427806000      1.024026000      1.884278000
1        2.935367000      1.805323000      0.503860000
1       -1.684210000     -2.518465000      0.541070000
1        0.403518000      1.727905000     -0.999767000
1        0.676081000     -2.514793000     -0.137679000
1       -3.584019000     -1.243249000      0.736823000
1       -2.961362000      1.693307000     -0.000448000
1        2.402267000      0.475666000     -1.633564000
1        2.443113000     -1.272673000     -1.527915000
1        2.960421000     -1.124636000      0.950005000
1        4.158241000     -0.224542000     -0.019249000
29       2.492164079      3.074002318      2.339187355
29       0.302225163      4.572754764      3.430284528
29       1.820370614      2.780158386      4.985851275
29       3.896624623      4.572754764      4.342638396
29       1.336452583      5.240889284      0.958485034
29       4.166461738      5.240889284      1.676816379
29       2.270421879      6.649165120      3.212784839
29       1.644644909      5.613394487      5.678157630
*

$new_job

! PBE D3 def2-TZVP opt PModel NOAUTOSTART cpcm(water)

%pal nprocs=16 end
%geom maxiter=200 end
%base "2_M0002"

* xyz 1 1
6        1.293053000      1.584692000     -0.120584000
6       -0.021154000     -0.796401000      0.558269000
6        1.972497000      0.375150000     -0.152591000
6       -0.060079000      1.600914000      0.239173000
6       -0.734320000      0.410591000      0.567578000
6        1.315328000     -0.802827000      0.182827000
8        3.288363000      0.287570000     -0.503222000
8        1.976877000     -1.994795000      0.146051000
6       -2.198861000      0.441011000      0.936665000
6       -3.064327000     -0.516537000      0.110481000
7       -2.877334000     -0.277120000     -1.346384000
1       -1.895440000     -0.437300000     -1.619560000
1       -3.455176000     -0.913388000     -1.910094000
1       -3.113406000      0.686489000     -1.613784000
1        1.794400000      2.517452000     -0.364044000
1       -0.476087000     -1.739036000      0.852323000
1       -0.573714000      2.561196000      0.274344000
1        3.649250000      1.185516000     -0.611564000
1        2.902090000     -1.766172000     -0.082955000
1       -2.589913000      1.459076000      0.813909000
1       -2.297332000      0.197279000      2.001363000
1       -2.811007000     -1.565910000      0.287992000
1       -4.127075000     -0.367127000      0.323228000
29      -2.745448975      0.224088874     -3.792073270
29      -0.776251310      0.093514934     -5.874810745
29      -2.655945736     -1.962158141     -5.451830413
29      -4.479253128      0.093514934     -6.074496981
29      -1.241879578      2.478499402     -4.562994359
29      -4.157395554      2.478499403     -4.720215025
29      -2.572206329      2.024958597     -7.004702482
29      -2.518654836     -0.535009395     -7.997766800
*

$new_job

! PBE D3 def2-TZVP opt PModel NOAUTOSTART cpcm(water)

%pal nprocs=16 end
%geom maxiter=200 end
%base "3_M0003"

* xyz 1 1
6       -1.052971000     -1.610853000      0.227945000
6       -0.155273000      1.042331000      0.386444000
6       -1.900177000     -0.558785000     -0.082300000
6        0.259072000     -1.340029000      0.616835000
6        0.724848000     -0.014189000      0.680298000
6       -1.463991000      0.758846000      0.008962000
8       -3.176831000     -0.835219000     -0.472397000
8       -2.360382000      1.743253000     -0.293590000
6        2.170086000      0.262382000      1.019243000
6        2.996341000      0.642764000     -0.212947000
7        2.935393000     -0.424039000     -1.248695000
1        1.964776000     -0.577324000     -1.563597000
1        3.486702000     -0.176057000     -2.080253000
1        3.285887000     -1.324531000     -0.898185000
1       -1.421674000     -2.632627000      0.179154000
1        0.177729000      2.074669000      0.454029000
1        0.901714000     -2.178378000      0.880389000
1       -3.606289000      0.034991000     -0.597921000
1       -2.015948000      2.601366000      0.008641000
1        2.614505000     -0.615261000      1.505430000
1        2.216246000      1.073063000      1.756708000
1        2.627447000      1.556893000     -0.688467000
1        4.051243000      0.772409000      0.045956000
29       2.990861109     -2.264570431     -2.939661392
29       4.877321211     -4.204933575     -3.892994255
29       2.957525778     -4.815771155     -1.923421145
29       1.170932733     -4.204933575     -4.014573467
29       4.527665668     -1.831677974     -5.260920308
29       1.609483244     -1.831677975     -5.356644304
29       3.095821385     -4.093419697     -6.139415278
29       3.040704435     -6.265093061     -4.459154125
*

$new_job

! PBE D3 def2-TZVP opt PModel NOAUTOSTART cpcm(water)

%pal nprocs=16 end
%geom maxiter=200 end
%base "4_M0004"

* xyz 1 1
6       -1.005565000     -1.624533000      0.076505000
6       -0.194514000      1.030187000      0.473013000
6       -1.891116000     -0.578507000     -0.127987000
6        0.301543000     -1.346076000      0.477730000
6        0.727069000     -0.016785000      0.653406000
6       -1.498063000      0.738452000      0.083514000
8       -3.162476000     -0.861137000     -0.530289000
8       -2.430165000      1.716300000     -0.114208000
6        2.161865000      0.284862000      1.018629000
6        3.166381000     -0.209158000     -0.028304000
7        2.839541000      0.330817000     -1.376333000
1        2.849026000      1.358122000     -1.396175000
1        3.503354000     -0.003076000     -2.086928000
1        1.899330000      0.028491000     -1.675538000
1       -1.340000000     -2.649822000     -0.062740000
1        0.101357000      2.063126000      0.636350000
1        0.971161000     -2.184901000      0.660773000
1       -3.622842000      0.001218000     -0.570328000
1       -2.123450000      2.544319000      0.294236000
1        2.384223000     -0.177173000      1.988098000
1        2.292698000      1.365763000      1.155292000
1        4.180086000      0.125506000      0.210995000
1        3.163797000     -1.299249000     -0.122765000
29       2.419357067      1.374766566     -3.608734121
29       3.842314518      1.743621351     -6.072820693
29       2.028151569     -0.377238315     -5.687175309
29       0.197925570      1.743621351     -5.386871530
29       3.795410897      3.763427609     -4.190267755
29       0.926043092      3.763427608     -3.650193556
29       1.915366082      3.858766777     -6.286394904
29       1.628750050      1.591275977     -7.809161248
*

$new_job

! PBE D3 def2-TZVP opt PModel NOAUTOSTART cpcm(water)

%pal nprocs=16 end
%geom maxiter=200 end
%base "5_M0005"

* xyz 1 1
6       -1.447298000     -1.576422000     -0.061973000
6       -0.169383000      0.884365000      0.349737000
6       -2.169412000     -0.391810000     -0.118145000
6       -0.072080000     -1.529517000      0.197274000
6        0.578034000     -0.300566000      0.405171000
6       -1.530497000      0.826281000      0.084998000
8       -3.511232000     -0.368283000     -0.369633000
8       -2.237172000      1.991738000      0.025145000
6        2.060437000     -0.243537000      0.661100000
6        2.818311000      0.182206000     -0.594606000
7        4.274374000      0.267683000     -0.306472000
1        4.660055000     -0.636004000     -0.002273000
1        4.794889000      0.555021000     -1.146349000
1        4.476642000      0.960680000      0.426877000
1       -1.931280000     -2.536898000     -0.214013000
1        0.285365000      1.857301000      0.516584000
1        0.478661000     -2.467543000      0.242972000
1       -3.833228000     -1.283417000     -0.448416000
1       -3.161473000      1.716606000     -0.147217000
1        2.419916000     -1.221713000      1.004746000
1        2.255936000      0.456752000      1.483363000
1        2.699168000     -0.540426000     -1.408302000
1        2.513296000      1.172218000     -0.948103000
29       6.693051674      0.329117311      0.322991371
29       8.285907515     -0.184863640      2.653488795
29       7.903315333     -2.115986961      0.637963743
29       9.219905818     -0.184863640     -0.935347259
29       7.520546791      2.398165368      2.046853042
29       8.255919633      2.398165367     -0.778775831
29      10.065179480      1.534399002      1.200591128
29      10.575650768     -1.160828332      1.333441810
*



