! PBE D3 def2-TZVP opt numfreq PModel NOAUTOSTART cpcm(water)
%pal nprocs=16 end
%geom maxiter=150 end
%base "neutral"
*xyz 0 2
  C   -0.02140364152557     -0.80940218917645     -0.44708175794612
  C   -1.17264991171872      1.63236054975451      0.21088867046068
  C   -1.33606848448430     -0.75377106282309      0.00610105861508
  C   0.74935952055072      0.35450005108576     -0.56909152346357
  C   0.14833472577950      1.57404178188917     -0.22779391110093
  C   -1.94060610740944      0.47052350003093      0.33386429247406
  O   -3.22676799690382      0.57662509602763      0.77219018430929
  O   -2.10717856887760     -1.90898912601483      0.16652148937474
  C   2.19425722792535      0.28058832451440     -0.99306783387929
  C   3.15471908730219      0.20304416324050      0.20362826511013
  N   2.90292535973628     -1.01195480612932      0.98517260806348
  H   0.42363259676612     -1.77792949261602     -0.69496802687487
  H   -1.64344352033153      2.58410933757771      0.46020018122213
  H   0.72235223909186      2.49878750661014     -0.31619367907295
  H   -3.70073209510957     -0.28183457421848      0.63781409269925
  H   -1.58852648913673     -2.67630909359717     -0.14184015260760
  H   2.45099733622534      1.16794858680724     -1.59262475696223
  H   2.35587048539319     -0.60633326366640     -1.62439085576718
  H   4.18786967767474      0.15653140840230     -0.17510690673327
  H   3.06443230230597      1.14088154306932      0.78922840980533
  H   1.98738211942540     -0.94051761240599      1.43661957529592
  H   3.59053280629567     -1.09696050207577      1.73569529577660
  Cu  -4.23738147897507     -2.14481392028607     -0.56583123079868
*

$new_job

! PBE D3 def2-TZVP opt numfreq PModel NOAUTOSTART cpcm(water)
%pal nprocs=16 end
%geom maxiter=150 end
%base "protonated"
*xyz 1 2
  C   -1.36400846934019     -1.62479686188867     -0.10418494505748
  C   -0.17901053228662      0.84411414343272      0.36946527350921
  C   -2.13217463231913     -0.46554477811354     -0.17385520348008
  C   -0.00170192092867     -1.55981996956799      0.19424700232135
  C   0.59577330369121     -0.31940781932163      0.43341160230061
  C   -1.54336781883469      0.79635027383699      0.07029173342193
  O   -3.47651780902064     -0.48114767528546     -0.47940809814720
  O   -2.22148821629495      1.96274574532349      0.02497904596621
  C   2.07797568357685     -0.21659116784947      0.71304678728419
  C   2.80899191053844      0.12076965504039     -0.57920519578686
  N   4.31189977521447      0.28064160453514     -0.33511022727274
  H   4.71253329823077     -0.58729710290142      0.05028734774824
  H   4.82294753294896      0.51101013171252     -1.19956891395382
  H   4.48951750129644      1.03059710324910      0.34947014394808
  H   -1.83702019964496     -2.59323913153682     -0.28378876401533
  H   0.25127785132606      1.82700284736490      0.57535672421441
  H   0.57970046642223     -2.48129566088353      0.25564612096451
  H   -3.78671569977429     -1.40137340610958     -0.57576545178472
  H   -3.20475777538341      1.80801832115818     -0.07015248542823
  H   2.45101568663043     -1.17058794481091      1.12025637559051
  H   2.26959743705088      0.56673556967917      1.46639033250212
  H   2.70035254978077     -0.67008517783125     -1.33230268475755
  H   2.46436236943628      1.07023664447194     -1.00824523174293
  Cu  -5.25908998731626      1.12221176029572     -0.17845952134443
*

$new_job

! PBE D3 def2-TZVP opt numfreq PModel NOAUTOSTART cpcm(water)
%pal nprocs=16 end
%geom maxiter=150 end
%base "deprotonated"
*xyz -1 2
  O   2.26407286979171     -1.92662253038609      0.00181455078392
  O   3.23460543214358      0.71945220080410     -0.53503028500803
  N   -3.06809047556613      0.39826797937105     -1.33455325117501
  C   -2.18952361654168     -0.15256021569861      0.99328292339991
  C   -0.74403941266594      0.08380334776518      0.64231483353858
  C   -3.04667325385693     -0.56248564471395     -0.22440590009680
  C   0.14536484358710     -0.99649211449877      0.49536188225263
  C   -0.25016261005577      1.36639391844137      0.37691430821063
  C   1.47063297633351     -0.81915330837172      0.10544128876545
  C   1.07671537630085      1.56091041807096     -0.01895224257422
  C   1.99104494709139      0.49296298068226     -0.17175695216987
  H   -2.61976481259760      0.76779699819230      1.42877638569231
  H   -2.27908612739388     -0.94032522288775      1.76397782806112
  H   -4.08851239600975     -0.74362699818862      0.09473093364893
  H   -2.66419464369923     -1.51773981527286     -0.62001580373582
  H   -0.19051325106317     -2.01902743495149      0.69508364605038
  H   -0.91097793400504      2.23203857087384      0.49159008839705
  H   1.45681142464043      2.56628582124083     -0.21537987608817
  H   -2.09180827170196      0.58860367729698     -1.58978917206766
  H   -3.41569114367042      1.29494629949009     -0.97891189386820
  H   3.17515892822914     -1.61785123581718     -0.28425270391130
  Cu  4.74513994170983     -0.40213816044191     -0.88307005210584
*

$new_job

! PBE D3 def2-TZVP opt numfreq PModel NOAUTOSTART cpcm(water)
%pal nprocs=16 end
%geom maxiter=150 end
%base "2x_deprotonated"
*xyz -2 2
  O   -2.27462808444851     -1.99334039987207      0.21999816480273
  O   -3.32344020077683      0.45199276397836     -0.54100350986086
  N   2.94404356580091      0.32845787215290     -1.41506916551770
  C   2.14879825554637      0.03709382582384      0.97975452479725
  C   0.69112442911699      0.16878494908694      0.62895259702229
  C   3.01092065450881     -0.48923606583347     -0.18965960064648
  C   -0.14894595870056     -0.97296768583966      0.60815035257795
  C   0.14684994179989      1.40073748766217      0.24472932477766
  C   -1.51076530940791     -0.94000683925795      0.22154345552623
  C   -1.20443554838711      1.48948301342124     -0.15479109743466
  C   -2.07353587676800      0.37155285979844     -0.18723263019669
  H   2.55247522872650      1.02563762437593      1.28131869985491
  H   2.29255333241014     -0.64494421394126      1.84460605088237
  H   2.66437451733546     -1.50325189113951     -0.44947784006715
  H   4.07400695464093     -0.57351048955685      0.11516693898683
  H   0.25586294768499     -1.94827956040401      0.91275084405010
  H   0.77485442860934      2.30221967080657      0.27130012939103
  H   -1.63193041217899      2.45855103513937     -0.44121731510175
  H   3.22839027315037      1.28099549119824     -1.15116467416256
  H   1.93455968270284      0.44309976352690     -1.59613581695961
  Cu  -4.21500262536565     -1.45033192312612     -0.41068221272187
*

$new_job

! PBE D3 def2-TZVP opt numfreq PModel NOAUTOSTART cpcm(water)
%pal nprocs=16 end
%geom maxiter=150 end
%base "zwitterione"
*xyz 0 2
  O   2.31917491475132     -2.05753028691037      1.04629610930313
  C   1.66124614189752     -0.88562840787774      0.96106715343492
  C   0.26627064325224     -0.92245924305218      0.85265492622958
  C   -0.52271897428726      0.26271030617944      0.80480352827461
  C   -1.94503884151791      0.15196986637482      0.33614186808179
  C   -1.95658150748282      0.22206804511494     -1.20968846524578
  N   -0.84805286846869     -0.66196355771812     -1.73351824531888
  H   -0.38305554067810     -0.28145023969160     -2.56340925539459
  H   -0.13157734416091     -0.73654017533106     -0.89864281278687
  H   -1.17224276816989     -1.61172242725054     -1.94598000868789
  C   0.14653166721564      1.48976951192571      0.84199048196669
  C   1.53722469392677      1.54183972098385      0.94142709165494
  C   2.35984525045839      0.38428563303677      0.97728985273790
  O   3.65001273278982      0.47570113279582      1.04844426727206
  H   3.31934830614004     -1.87057786194817      1.03190334618141
  H   -0.21815166561429     -1.90381227223127      0.91777526960406
  H   -2.40739490126261     -0.79159695596336      0.66948363361039
  H   -2.57598362655206      0.97425275471558      0.70404055526725
  H   -2.90490138332628     -0.09205532392161     -1.66883823686220
  H   -1.71614037125286      1.24100994917188     -1.53477774941847
  H   -0.42458988430754      2.42121427261265      0.78402784134147
  H   2.05090321496868      2.50370619989226      0.99019117395316
  Cu  5.03813807068079     -0.85171966990770      0.74222131880135
*
