! PBE D3 def2-TZVP opt numfreq PModel NOAUTOSTART cpcm(water)
%pal nprocs=16 end
%geom maxiter=150 end
%base "neutral"
*xyz 0 2
 C   -0.00614811122097     -0.82893725347370     -0.58637597993230
  C   -1.14929901630093      1.64591132114548     -0.03623256988423
  C   -1.36626820684419     -0.75933305479714     -0.26802991529164
  C   0.79635801065973      0.31847720682812     -0.64134162869264
  C   0.20696523630729      1.55888011551089     -0.35437143961488
  C   -1.93817357193681      0.49727326607171     -0.00194116026457
  O   -3.30285925786650      0.53669305558520      0.25933690594438
  O   -2.09284251428740     -1.91894843827304     -0.24948920632491
  C   2.27112761298104      0.21526243435128     -0.92965695912320
  C   3.12942289359429      0.18915258724946      0.35509320829840
  N   2.90462445052562     -0.94826218713390      1.25499734410263
  H   0.42106523992175     -1.81109214623843     -0.80073729481720
  H   -1.61204816600286      2.61366059065739      0.17360818225851
  H   0.81063528123992      2.46819069128955     -0.38426178812575
  H   -3.56293536961020      1.44861954475841      0.50105687780195
  H   -2.97203732390215     -1.75532859332853      0.18385129347479
  H   2.59294181972440      1.07409221880947     -1.54128293739017
  H   2.47846515572921     -0.69850637576889     -1.50940094094289
  H   4.19227657316933      0.19375649827994      0.06602099345542
  H   2.94827613529055      1.11620883591797      0.92282187836396
  H   3.07026670413899     -1.81875806325908      0.74043514254376
  H   1.91434570946786     -0.97656271132969      1.51747314137256
  Cu  -4.37737036377797     -0.84897520485248      1.70395034878802
*

$new_job

! PBE D3 def2-TZVP opt numfreq PModel NOAUTOSTART cpcm(water)
%pal nprocs=16 end
%geom maxiter=150 end
%base "protonated"
*xyz 1 2
  C   -1.19045091050516     -1.61001719193666      0.22247098560725
  C   -0.09346156905618      0.75622120522927     -0.74360272413125
  C   -1.99755082385788     -0.48280823035206      0.07506023732300
  C   0.16075343309674     -1.56004346867937     -0.11992285072186
  C   0.72281558197282     -0.37418512524661     -0.61320619183504
  C   -1.45011611417719      0.72199909193611     -0.40346636282856
  O   -3.35438093820171     -0.49880613832089      0.36082548523826
  O   -2.19072743430071      1.85718678371313     -0.57027320335463
  C   2.19371031763989     -0.30217546040071     -0.95402208567067
  C   3.09352443135369     -0.28721355490285      0.27879266618278
  N   2.81914475838694      0.92161633730609      1.12909844362663
  H   1.82856162779316      0.95864403031795      1.41250752965794
  H   3.38939626726589      0.91750570559803      1.98497876354908
  H   3.02662711872152      1.79341821795020      0.62149162754493
  H   -1.63526959705827     -2.53602632289272      0.59493302114466
  H   0.31942866301738      1.69534566696451     -1.11926708005918
  H   0.77779891074600     -2.45355475871955     -0.00752684454367
  H   -3.59843026607171     -1.36194037465738      0.75292956541960
  H   -3.06663255357874      1.76123827880520     -0.10623709076044
  H   2.39973251007108      0.58860923816196     -1.56679618434151
  H   2.49192282954522     -1.17909032068626     -1.54819797233442
  H   2.91999999473734     -1.16220490623088      0.91680843795774
  H   4.15411537826612     -0.24571003608994      0.00420345900569
  Cu  -4.45812964780624      1.12140837213344      1.51848307432370
*

$new_job

! PBE D3 def2-TZVP opt numfreq PModel NOAUTOSTART cpcm(water)
%pal nprocs=16 end
%geom maxiter=150 end
%base "deprotonated"
*xyz -1 2
  O   2.33277325832595     -1.91989475780160     -0.11089043041771
  O   3.50644693694394      0.70277950512916     -0.36082854734601
  N   -4.30933454679467     -0.33893902731864     -0.47480878683905
  C   -2.07563547652142      0.06313041655697      0.68617921992090
  C   -0.59508544870584      0.23246494416506      0.45764974699439
  C   -2.85830486087469     -0.16048517461733     -0.62398434158302
  C   0.23884496762443     -0.88705621057496      0.29610707240540
  C   -0.00955852843531      1.49835837267362      0.33036852526434
  C   1.60133458895818     -0.76382449019200      0.02039447385728
  C   1.35467742068582      1.63523405171372      0.05364708306187
  C   2.21193555412654      0.52419788081435     -0.11152827964225
  H   -2.48442327698012      0.95698664923591      1.18629164308074
  H   -2.26711980236148     -0.79714069900470      1.35030616893922
  H   -2.45149301763608     -1.04862007607923     -1.13434970514544
  H   -2.68194343519972      0.69629915592036     -1.29470898524179
  H   -0.17547452380119     -1.89546616388666      0.39038392878173
  H   -0.62667672150786      2.39322858580915      0.45122437545116
  H   1.79980450114113      2.62973023087410     -0.03669565497382
  H   -4.69622141868181      0.47759919859376      0.00832812922532
  H   -4.48344170623304     -1.12896006258043      0.15408609649822
  H   3.28190553676043     -1.66231998852770     -0.32760686144461
  Cu  4.90885034816680     -0.54958357290292     -0.78193044884687
*

$new_job

! PBE D3 def2-TZVP opt numfreq PModel NOAUTOSTART cpcm(water)
%pal nprocs=16 end
%geom maxiter=150 end
%base "2x_deprotonated"
*xyz -2 2
  O   -2.28203318375591     -2.00211639444840      0.23779352929311
  O   -3.35665429598639      0.44702762076745     -0.51486727134538
  N   2.98174561568235      0.31385824561540     -1.41562206789812
  C   2.14335500782816      0.04571416137956      0.97289398552557
  C   0.67964413701785      0.17884413954229      0.62876060502267
  C   2.98763293518891     -0.50758306422708     -0.19416984724197
  C   -0.15656001564080     -0.95968757621869      0.61353933294477
  C   0.12651736587763      1.40463740290649      0.24585370599693
  C   -1.51532602056799     -0.92070940489485      0.23737273752103
  C   -1.22809747985746      1.48970101261184     -0.13485310421863
  C   -2.08103745349170      0.36777733815708     -0.15879185549804
  H   2.55188202885974      1.03039180150544      1.25915945230736
  H   2.27799396968453     -0.62443788791263      1.84096781853058
  H   2.61359361584911     -1.51109107188254     -0.45710459493490
  H   4.03370943230770     -0.63066068769020      0.13093471486757
  H   0.25721356104570     -1.93168086852536      0.90958196498812
  H   0.74947820985840      2.30444908576594      0.24858091424495
  H   -1.65224275460234      2.45734736894111     -0.42520483830198
  H   3.38457099205747      1.22966408620171     -1.19038713776167
  H   2.00210116896980      0.51699431230589     -1.64698690925163
  Cu  -4.18135664032477     -1.45570233190042     -0.39561391479035
*

$new_job

! PBE D3 def2-TZVP opt numfreq PModel NOAUTOSTART cpcm(water)
%pal nprocs=16 end
%geom maxiter=150 end
%base "zwitterione"
*xyz 0 2
  O   2.68755082528105     -2.28815399110541     -0.03157657258383
  C   2.03502612844716     -1.09605163074462     -0.21076055384340
  C   0.66854614121724     -1.13854305172391     -0.47960190741296
  C   -0.08449526133267      0.03170193935195     -0.68267110336279
  C   -1.57381065474072     -0.04248097334081     -0.92184125819251
  C   -2.35165829126616     -0.39875346047968      0.34380554166476
  N   -2.06215190673777      0.60499475967792      1.42364462857824
  H   -2.45828483427382      0.32214607937921      2.32918110868078
  H   -1.04079538574823      0.71481865832163      1.53471144227314
  H   -2.44544243282360      1.53144675654679      1.19008738024477
  C   0.58092670142360      1.26125830363259     -0.60138735385228
  C   1.95266278056690      1.31578205605217     -0.33457604822112
  C   2.73332290195264      0.15579174109992     -0.13111098540628
  O   4.03169412446364      0.25183081773964      0.11413622569982
  H   3.65330695277203     -2.08716674097009      0.17303404279532
  H   0.18587911216113     -2.11880652733346     -0.53352785912151
  H   -1.94088155461824      0.91926152576955     -1.31350750050006
  H   -1.82087816144360     -0.81129304136764     -1.67036211032768
  H   -3.43636629966037     -0.39663127668109      0.18367287791711
  H   -2.04462848748229     -1.37446039940261      0.73975191774066
  H   0.02249118613095      2.18848669512896     -0.75675832119526
  H   2.46396970883309      2.28011514638158     -0.28023957878344
  Cu  5.39053587287804     -1.08381147993257      0.42901790620852
*
