! B3LYP def2-SVP Opt PAL4


* xyz 0 1
H 0.0 0.0 0.0
H 0.0 0.0 1.0
*
