! PBE D3 def2-TZVP opt PModel
%pal nprocs=16 end
%geom maxiter=200 end
%base "1_M0001"
*xyz 1 1
  C        -1.224823000000     -1.587242000000      0.220921000000
  C        -0.017892000000      0.791629000000     -0.642482000000
  C        -1.950120000000     -0.403966000000      0.185336000000
  C         0.121085000000     -1.577659000000     -0.164105000000
  C         0.736243000000     -0.388929000000     -0.594533000000
  C        -1.345335000000      0.773733000000     -0.239305000000
  O        -3.261213000000     -0.341801000000      0.559007000000
  O        -2.048891000000      1.941679000000     -0.258944000000
  C         2.199890000000     -0.366462000000     -0.959628000000
  C         3.105051000000     -0.278056000000      0.271559000000
  N         2.816475000000      0.949776000000      1.061500000000
  H         1.843695000000      0.946388000000      1.405002000000
  H         3.427806000000      1.024026000000      1.884278000000
  H         2.935367000000      1.805323000000      0.503860000000
  H        -1.684210000000     -2.518465000000      0.541070000000
  H         0.403518000000      1.727905000000     -0.999767000000
  H         0.676081000000     -2.514793000000     -0.137679000000
  H        -3.584019000000     -1.243249000000      0.736823000000
  H        -2.961362000000      1.693307000000     -0.000448000000
  H         2.402267000000      0.475666000000     -1.633564000000
  H         2.443113000000     -1.272673000000     -1.527915000000
  H         2.960421000000     -1.124636000000      0.950005000000
  H         4.158241000000     -0.224542000000     -0.019249000000
  Cu        3.566518269423      2.345331422363      1.966514126097
  Cu        1.660873016494      2.054085892693      1.892713653674
*

$new_job
%pal nprocs=16 end
%geom maxiter=200 end
%base "2_M0002"
! PBE D3 def2-TZVP opt PModel NOAUTOSTART
*xyz 1 1
  C         1.293053000000      1.584692000000     -0.120584000000
  C        -0.021154000000     -0.796401000000      0.558269000000
  C         1.972497000000      0.375150000000     -0.152591000000
  C        -0.060079000000      1.600914000000      0.239173000000
  C        -0.734320000000      0.410591000000      0.567578000000
  C         1.315328000000     -0.802827000000      0.182827000000
  O         3.288363000000      0.287570000000     -0.503222000000
  O         1.976877000000     -1.994795000000      0.146051000000
  C        -2.198861000000      0.441011000000      0.936665000000
  C        -3.064327000000     -0.516537000000      0.110481000000
  N        -2.877334000000     -0.277120000000     -1.346384000000
  H        -1.895440000000     -0.437300000000     -1.619560000000
  H        -3.455176000000     -0.913388000000     -1.910094000000
  H        -3.113406000000      0.686489000000     -1.613784000000
  H         1.794400000000      2.517452000000     -0.364044000000
  H        -0.476087000000     -1.739036000000      0.852323000000
  H        -0.573714000000      2.561196000000      0.274344000000
  H         3.649250000000      1.185516000000     -0.611564000000
  H         2.902090000000     -1.766172000000     -0.082955000000
  H        -2.589913000000      1.459076000000      0.813909000000
  H        -2.297332000000      0.197279000000      2.001363000000
  H        -2.811007000000     -1.565910000000      0.287992000000
  H        -4.127075000000     -0.367127000000      0.323228000000
  Cu       -2.244902157180      0.069617945762     -2.925796198191
  Cu       -4.183455409433     -0.501325867755     -2.879306386566
*

$new_job
%pal nprocs=16 end
%geom maxiter=200 end
%base "3_M0003"
! PBE D3 def2-TZVP opt PModel NOAUTOSTART
*xyz 1 1
  C        -1.052971000000     -1.610853000000      0.227945000000
  C        -0.155273000000      1.042331000000      0.386444000000
  C        -1.900177000000     -0.558785000000     -0.082300000000
  C         0.259072000000     -1.340029000000      0.616835000000
  C         0.724848000000     -0.014189000000      0.680298000000
  C        -1.463991000000      0.758846000000      0.008962000000
  O        -3.176831000000     -0.835219000000     -0.472397000000
  O        -2.360382000000      1.743253000000     -0.293590000000
  C         2.170086000000      0.262382000000      1.019243000000
  C         2.996341000000      0.642764000000     -0.212947000000
  N         2.935393000000     -0.424039000000     -1.248695000000
  H         1.964776000000     -0.577324000000     -1.563597000000
  H         3.486702000000     -0.176057000000     -2.080253000000
  H         3.285887000000     -1.324531000000     -0.898185000000
  H        -1.421674000000     -2.632627000000      0.179154000000
  H         0.177729000000      2.074669000000      0.454029000000
  H         0.901714000000     -2.178378000000      0.880389000000
  H        -3.606289000000      0.034991000000     -0.597921000000
  H        -2.015948000000      2.601366000000      0.008641000000
  H         2.614505000000     -0.615261000000      1.505430000000
  H         2.216246000000      1.073063000000      1.756708000000
  H         2.627447000000      1.556893000000     -0.688467000000
  H         4.051243000000      0.772409000000      0.045956000000
  Cu        1.808580755615     -1.369612744634     -2.443809574041
  Cu        3.840092391386     -1.392238947743     -2.490239554438
*

$new_job
%pal nprocs=16 end
%geom maxiter=200 end
%base "4_M0004"
! PBE D3 def2-TZVP opt PModel NOAUTOSTART
*xyz 1 1
  C        -1.005565000000     -1.624533000000      0.076505000000
  C        -0.194514000000      1.030187000000      0.473013000000
  C        -1.891116000000     -0.578507000000     -0.127987000000
  C         0.301543000000     -1.346076000000      0.477730000000
  C         0.727069000000     -0.016785000000      0.653406000000
  C        -1.498063000000      0.738452000000      0.083514000000
  O        -3.162476000000     -0.861137000000     -0.530289000000
  O        -2.430165000000      1.716300000000     -0.114208000000
  C         2.161865000000      0.284862000000      1.018629000000
  C         3.166381000000     -0.209158000000     -0.028304000000
  N         2.839541000000      0.330817000000     -1.376333000000
  H         2.849026000000      1.358122000000     -1.396175000000
  H         3.503354000000     -0.003076000000     -2.086928000000
  H         1.899330000000      0.028491000000     -1.675538000000
  H        -1.340000000000     -2.649822000000     -0.062740000000
  H         0.101357000000      2.063126000000      0.636350000000
  H         0.971161000000     -2.184901000000      0.660773000000
  H        -3.622842000000      0.001218000000     -0.570328000000
  H        -2.123450000000      2.544319000000      0.294236000000
  H         2.384223000000     -0.177173000000      1.988098000000
  H         2.292698000000      1.365763000000      1.155292000000
  H         4.180086000000      0.125506000000      0.210995000000
  H         3.163797000000     -1.299249000000     -0.122765000000
  Cu        3.243405242701      1.272766740767     -2.772698493932
  Cu        1.495501134619      0.945111858468     -2.390915813023
*

$new_job
%pal nprocs=16 end
%geom maxiter=200 end
%base "5_M0005"
! PBE D3 def2-TZVP opt PModel NOAUTOSTART
*xyz 1 1
  C        -1.447298000000     -1.576422000000     -0.061973000000
  C        -0.169383000000      0.884365000000      0.349737000000
  C        -2.169412000000     -0.391810000000     -0.118145000000
  C        -0.072080000000     -1.529517000000      0.197274000000
  C         0.578034000000     -0.300566000000      0.405171000000
  C        -1.530497000000      0.826281000000      0.084998000000
  O        -3.511232000000     -0.368283000000     -0.369633000000
  O        -2.237172000000      1.991738000000      0.025145000000
  C         2.060437000000     -0.243537000000      0.661100000000
  C         2.818311000000      0.182206000000     -0.594606000000
  N         4.274374000000      0.267683000000     -0.306472000000
  H         4.660055000000     -0.636004000000     -0.002273000000
  H         4.794889000000      0.555021000000     -1.146349000000
  H         4.476642000000      0.960680000000      0.426877000000
  H        -1.931280000000     -2.536898000000     -0.214013000000
  H         0.285365000000      1.857301000000      0.516584000000
  H         0.478661000000     -2.467543000000      0.242972000000
  H        -3.833228000000     -1.283417000000     -0.448416000000
  H        -3.161473000000      1.716606000000     -0.147217000000
  H         2.419916000000     -1.221713000000      1.004746000000
  H         2.255936000000      0.456752000000      1.483363000000
  H         2.699168000000     -0.540426000000     -1.408302000000
  H         2.513296000000      1.172218000000     -0.948103000000
  Cu        5.833625871265      0.114846387383      0.758463914879
  Cu        5.977486374807      0.654307165425     -0.836735494102
*
