%pal nprocs=16 end
%geom maxiter=200 end
%base "4_M0004"
! PBE D3 def2-TZVP opt slowconv PModel NOAUTOSTART cpcm(water)
*xyz 1 1
  C        -1.005565000000     -1.624533000000      0.076505000000
  C        -0.194514000000      1.030187000000      0.473013000000
  C        -1.891116000000     -0.578507000000     -0.127987000000
  C         0.301543000000     -1.346076000000      0.477730000000
  C         0.727069000000     -0.016785000000      0.653406000000
  C        -1.498063000000      0.738452000000      0.083514000000
  O        -3.162476000000     -0.861137000000     -0.530289000000
  O        -2.430165000000      1.716300000000     -0.114208000000
  C         2.161865000000      0.284862000000      1.018629000000
  C         3.166381000000     -0.209158000000     -0.028304000000
  N         2.839541000000      0.330817000000     -1.376333000000
  H         2.849026000000      1.358122000000     -1.396175000000
  H         3.503354000000     -0.003076000000     -2.086928000000
  H         1.899330000000      0.028491000000     -1.675538000000
  H        -1.340000000000     -2.649822000000     -0.062740000000
  H         0.101357000000      2.063126000000      0.636350000000
  H         0.971161000000     -2.184901000000      0.660773000000
  H        -3.622842000000      0.001218000000     -0.570328000000
  H        -2.123450000000      2.544319000000      0.294236000000
  H         2.384223000000     -0.177173000000      1.988098000000
  H         2.292698000000      1.365763000000      1.155292000000
  H         4.180086000000      0.125506000000      0.210995000000
  H         3.163797000000     -1.299249000000     -0.122765000000
  Cu       -4.217461434764      1.864091934446     -0.784002861586
  Cu       -3.216616949818      3.717974190269     -0.114576486982
*
