! M062X TightSCF def2-TZVP slowconv PModel cpcm(water) 

%tddft
 nroots 12
 maxdim 60
 triplets false
end

%output
Print[ P_Basis ] 2
Print[ P_MOs ] 1
end

%pal nprocs=16 end
%base "cu0"
*xyz 0 2
  Cu     2.794678854485   -2.805966643718    0.031721560938
*
