! M062X TightSCF def2-TZVP slowconv PModel cpcm(water) 

%tddft
 nroots 12
 maxdim 60
 triplets false
end

%output
Print[ P_Basis ] 2
Print[ P_MOs ] 1
end

%pal nprocs=16 end
%base "neutral"
*xyz 0 2
  Cu  2.79467885448518     -2.80596664371773      0.03172156093816
*
