! PBE D3 def2-TZVP opt PModel NOAUTOSTART cpcm(water)

%pal nprocs=16 end
%geom maxiter=200 end
%base "1_M0001"

* xyz 1 1
C       -1.224823     -1.587242      0.220921
C       -0.017892      0.791629     -0.642482
C       -1.950120     -0.403966      0.185336
C        0.121085     -1.577659     -0.164105
C        0.736243     -0.388929     -0.594533
C       -1.345335      0.773733     -0.239305
O       -3.261213     -0.341801      0.559007
O       -2.048891      1.941679     -0.258944
C        2.199890     -0.366462     -0.959628
C        3.105051     -0.278056      0.271559
N        2.816475      0.949776      1.061500
H        1.843695      0.946388      1.405002
H        3.427806      1.024026      1.884278
H        2.935367      1.805323      0.503860
H       -1.684210     -2.518465      0.541070
H        0.403518      1.727905     -0.999767
H        0.676081     -2.514793     -0.137679
H       -3.584019     -1.243249      0.736823
H       -2.961362      1.693307     -0.000448
H        2.402267      0.475666     -1.633564
H        2.443113     -1.272673     -1.527915
H        2.960421     -1.124636      0.950005
H        4.158241     -0.224542     -0.019249
*

$new_job

! PBE D3 def2-TZVP opt PModel NOAUTOSTART cpcm(water)

%pal nprocs=16 end
%geom maxiter=200 end
%base "2_M0002"

* xyz 1 1
C        1.293053      1.584692     -0.120584
C       -0.021154     -0.796401      0.558269
C        1.972497      0.375150     -0.152591
C       -0.060079      1.600914      0.239173
C       -0.734320      0.410591      0.567578
C        1.315328     -0.802827      0.182827
O        3.288363      0.287570     -0.503222
O        1.976877     -1.994795      0.146051
C       -2.198861      0.441011      0.936665
C       -3.064327     -0.516537      0.110481
N       -2.877334     -0.277120     -1.346384
H       -1.895440     -0.437300     -1.619560
H       -3.455176     -0.913388     -1.910094
H       -3.113406      0.686489     -1.613784
H        1.794400      2.517452     -0.364044
H       -0.476087     -1.739036      0.852323
H       -0.573714      2.561196      0.274344
H        3.649250      1.185516     -0.611564
H        2.902090     -1.766172     -0.082955
H       -2.589913      1.459076      0.813909
H       -2.297332      0.197279      2.001363
H       -2.811007     -1.565910      0.287992
H       -4.127075     -0.367127      0.323228
*

$new_job

! PBE D3 def2-TZVP opt PModel NOAUTOSTART cpcm(water)

%pal nprocs=16 end
%geom maxiter=200 end
%base "3_M0003"

* xyz 1 1
C       -1.052971     -1.610853      0.227945
C       -0.155273      1.042331      0.386444
C       -1.900177     -0.558785     -0.082300
C        0.259072     -1.340029      0.616835
C        0.724848     -0.014189      0.680298
C       -1.463991      0.758846      0.008962
O       -3.176831     -0.835219     -0.472397
O       -2.360382      1.743253     -0.293590
C        2.170086      0.262382      1.019243
C        2.996341      0.642764     -0.212947
N        2.935393     -0.424039     -1.248695
H        1.964776     -0.577324     -1.563597
H        3.486702     -0.176057     -2.080253
H        3.285887     -1.324531     -0.898185
H       -1.421674     -2.632627      0.179154
H        0.177729      2.074669      0.454029
H        0.901714     -2.178378      0.880389
H       -3.606289      0.034991     -0.597921
H       -2.015948      2.601366      0.008641
H        2.614505     -0.615261      1.505430
H        2.216246      1.073063      1.756708
H        2.627447      1.556893     -0.688467
H        4.051243      0.772409      0.045956
*

$new_job

! PBE D3 def2-TZVP opt PModel NOAUTOSTART cpcm(water)

%pal nprocs=16 end
%geom maxiter=200 end
%base "4_M0004"

* xyz 1 1
C       -1.005565     -1.624533      0.076505
C       -0.194514      1.030187      0.473013
C       -1.891116     -0.578507     -0.127987
C        0.301543     -1.346076      0.477730
C        0.727069     -0.016785      0.653406
C       -1.498063      0.738452      0.083514
O       -3.162476     -0.861137     -0.530289
O       -2.430165      1.716300     -0.114208
C        2.161865      0.284862      1.018629
C        3.166381     -0.209158     -0.028304
N        2.839541      0.330817     -1.376333
H        2.849026      1.358122     -1.396175
H        3.503354     -0.003076     -2.086928
H        1.899330      0.028491     -1.675538
H       -1.340000     -2.649822     -0.062740
H        0.101357      2.063126      0.636350
H        0.971161     -2.184901      0.660773
H       -3.622842      0.001218     -0.570328
H       -2.123450      2.544319      0.294236
H        2.384223     -0.177173      1.988098
H        2.292698      1.365763      1.155292
H        4.180086      0.125506      0.210995
H        3.163797     -1.299249     -0.122765
*

$new_job

! PBE D3 def2-TZVP opt PModel NOAUTOSTART cpcm(water)

%pal nprocs=16 end
%geom maxiter=200 end
%base "5_M0005"

* xyz 1 1
C       -1.447298     -1.576422     -0.061973
C       -0.169383      0.884365      0.349737
C       -2.169412     -0.391810     -0.118145
C       -0.072080     -1.529517      0.197274
C        0.578034     -0.300566      0.405171
C       -1.530497      0.826281      0.084998
O       -3.511232     -0.368283     -0.369633
O       -2.237172      1.991738      0.025145
C        2.060437     -0.243537      0.661100
C        2.818311      0.182206     -0.594606
N        4.274374      0.267683     -0.306472
H        4.660055     -0.636004     -0.002273
H        4.794889      0.555021     -1.146349
H        4.476642      0.960680      0.426877
H       -1.931280     -2.536898     -0.214013
H        0.285365      1.857301      0.516584
H        0.478661     -2.467543      0.242972
H       -3.833228     -1.283417     -0.448416
H       -3.161473      1.716606     -0.147217
H        2.419916     -1.221713      1.004746
H        2.255936      0.456752      1.483363
H        2.699168     -0.540426     -1.408302
H        2.513296      1.172218     -0.948103
*



