! B3LYP D3 TightSCF def2-TZVP slowconv PModel cpcm(water) numfreq
%pal nprocs=16 end
%geom maxiter=150 end
%elprop Polar 1 end
%base "cu0+"
*xyz 0 2
  Cu     2.794678854485   -2.805966643718    0.031721560938
*
