! PBE D3 def2-TZVP opt numfreq

%base "M0001"
%pal nprocs=8 end
%geom maxiter=75 end
* xyz 0 1
  O   2.73552577528008     -2.10776859658788      0.20248935427753
  C   1.96128668878162     -1.01114349790436     -0.06119586119822
  C   0.67447775809354     -1.11688927530878     -0.56004624403681
  C   -0.10610921099939      0.02641099326058     -0.87616907966546
  C   -1.59060324368833     -0.09110206341328     -1.04116939790426
  C   -2.22310530168656     -0.30886029457784      0.36329441537577
  N   -1.51994510643502      0.62382307592026      1.31668556574530
  H   -1.30963755640164      0.20211997718824      2.22536433095195
  H   -0.57596198397013      0.85951707424502      0.78004190792168
  H   -2.03466869609033      1.49729032465367      1.46666957062342
  C   0.48341636773963      1.29225051191440     -0.63466341958741
  C   1.77373017477284      1.41738187144994     -0.11523562172275
  C   2.59764292184159      0.28567239275175      0.24406320417292
  O   3.73940768593165      0.36510794159604      0.74940663174559
  H   2.24814832080573     -2.89597563920881     -0.09755655649301
  H   0.24843414436268     -2.11612689856328     -0.72906648512460
  H   -2.01005169446634      0.82071963039015     -1.49681258941215
  H   -1.89460775280775     -0.94177578614304     -1.67042772450063
  H   -3.30547915825697     -0.12450452174904      0.41207000526241
  H   -2.01193404596566     -1.32706964463301      0.70947121530962
  H   -0.07432650039287      2.19432231231504     -0.91906863666782
  H   2.22012741355163      2.40409011240423      0.02343641492693
*
