! PBE D3 def2-TZVP opt 

%pal nprocs=8 end

%geom maxiter=75 end

* xyz -1 1
O     -2.23920    1.96260    0.05480
O     -3.35570   -0.56120    0.38680
N      4.40810    0.26240    0.34450
C      2.16280   -0.02120   -0.66130
C      0.70400   -0.16030   -0.38500
C      2.98620    0.10080    0.62890
C     -0.09990    0.97590   -0.29190
C      0.14340   -1.42670   -0.21870
C     -1.46420    0.84560   -0.03260
C     -1.22090   -1.55700    0.04070
C     -2.02470   -0.42080    0.13360
H      2.51110   -0.88170   -1.24810
H      2.33320    0.85640   -1.29930
H      2.84900   -0.78880    1.25410
H      2.64570    0.95930    1.21920
H      0.33150    1.96590   -0.41870
H      0.75940   -2.31950   -0.28690
H     -1.64450   -2.54960    0.16860
H      4.54680    1.08680   -0.23880
H      4.73620   -0.52850   -0.20890
Cu      -4.0        1.0         0.0
*
