! PBE D3 def2-TZVP opt PModel
%pal nprocs=16 end
%geom maxiter=150 end
%base "1_M0001"
*xyz 0 2
  O         2.915711000000     -2.145336000000     -0.071780000000
  C         2.182078000000     -1.035316000000     -0.216318000000
  C         0.729710000000     -1.105456000000     -0.496832000000
  C        -0.009761000000      0.014983000000     -0.639845000000
  C        -1.496476000000     -0.059044000000     -0.905511000000
  C        -2.271812000000     -0.345994000000      0.408601000000
  N        -2.054248000000      0.710545000000      1.426609000000
  H        -2.600459000000      0.540476000000      2.259362000000
  H        -1.091500000000      0.765704000000      1.725095000000
  H        -2.317673000000      1.622921000000      1.083567000000
  C         0.660670000000      1.326672000000     -0.513475000000
  C         1.982081000000      1.393560000000     -0.260573000000
  C         2.770665000000      0.160014000000     -0.105508000000
  O         4.241447000000      0.249090000000      0.178348000000
  H         2.428299000000     -2.956218000000     -0.163779000000
  H         0.249945000000     -2.080013000000     -0.586611000000
  H        -1.854382000000      0.888174000000     -1.339070000000
  H        -1.703849000000     -0.854101000000     -1.640670000000
  H        -3.348370000000     -0.416589000000      0.171998000000
  H        -1.952718000000     -1.323610000000      0.810152000000
  H         0.082070000000      2.246096000000     -0.608310000000
  H         2.484339000000      2.350932000000     -0.223869000000
  Cu        3.873240465643     -4.342789557556      0.249734767486
  Cu        5.280134203266     -2.603841181315      0.396651286175
*

$new_job
%pal nprocs=16 end
%geom maxiter=150 end
%base "2_M0002"
! PBE D3 def2-TZVP opt PModel NOAUTOSTART
*xyz 0 2
  O         3.036782000000     -1.702535000000     -0.306303000000
  C         2.228842000000     -0.635493000000     -0.300185000000
  C         0.786021000000     -0.762563000000     -0.609398000000
  C        -0.028158000000      0.314784000000     -0.598195000000
  C        -1.507463000000      0.201663000000     -0.890934000000
  C        -2.321226000000      0.162624000000      0.430607000000
  N        -1.965618000000     -1.005658000000      1.272309000000
  H        -2.537300000000     -1.050369000000      2.104141000000
  H        -2.095244000000     -1.877224000000      0.779303000000
  H        -1.007543000000     -0.975567000000      1.588679000000
  C         0.550259000000      1.635478000000     -0.274342000000
  C         1.862765000000      1.755194000000      0.003516000000
  C         2.733302000000      0.568036000000     -0.009269000000
  O         4.193050000000      0.713740000000      0.306352000000
  H         2.607585000000     -2.522971000000     -0.521281000000
  H         0.379714000000     -1.746234000000     -0.843910000000
  H        -1.820982000000      1.072411000000     -1.489556000000
  H        -1.729404000000     -0.699520000000     -1.484919000000
  H        -2.142203000000      1.096347000000      0.991942000000
  H        -3.396004000000      0.123931000000      0.178914000000
  H        -0.093763000000      2.515081000000     -0.246660000000
  H         2.297513000000      2.729453000000      0.183049000000
  Cu        3.406767597246     -3.531895120433     -0.354775588776
  Cu        5.012148107514     -1.805256886432      0.126335509666
*

$new_job
%pal nprocs=16 end
%geom maxiter=150 end
%base "3_M0003"
! PBE D3 def2-TZVP opt PModel NOAUTOSTART
*xyz 0 2
  O         3.266227000000     -1.923031000000      0.058566000000
  C         2.503268000000     -0.827159000000     -0.032295000000
  C         1.054011000000     -0.921893000000     -0.322149000000
  C         0.288854000000      0.183707000000     -0.415727000000
  C        -1.194899000000      0.091014000000     -0.693917000000
  C        -1.967532000000     -0.104657000000      0.637082000000
  N        -3.430612000000     -0.190154000000      0.411878000000
  H        -3.933738000000     -0.317680000000      1.278720000000
  H        -3.794872000000      0.647699000000     -0.018286000000
  H        -3.674344000000     -0.966536000000     -0.186082000000
  C         0.922929000000      1.504249000000     -0.218418000000
  C         2.238153000000      1.594719000000      0.046769000000
  C         3.059206000000      0.376299000000      0.141631000000
  O         4.526340000000      0.490008000000      0.435425000000
  H         2.801305000000     -2.741018000000     -0.076727000000
  H         0.601652000000     -1.903620000000     -0.462029000000
  H        -1.542037000000      1.011985000000     -1.188480000000
  H        -1.407397000000     -0.748654000000     -1.375108000000
  H        -1.610079000000     -1.028101000000      1.125669000000
  H        -1.740961000000      0.742621000000      1.308043000000
  H         0.317907000000      2.410130000000     -0.268514000000
  H         2.717459000000      2.564001000000      0.129175000000
  Cu        4.155915468418     -3.758531854475      0.110331594983
  Cu        5.448928200333     -1.978656324348      0.374573865404
*

$new_job
%pal nprocs=16 end
%geom maxiter=150 end
%base "4_M0004"
! PBE D3 def2-TZVP opt PModel NOAUTOSTART
*xyz 0 2
  O         2.804506000000     -2.218687000000     -0.081543000000
  C         2.120519000000     -1.074250000000     -0.222137000000
  C         0.674742000000     -1.137289000000     -0.501641000000
  C        -0.071467000000     -0.023011000000     -0.650644000000
  C        -1.557129000000     -0.106674000000     -0.916292000000
  C        -2.331361000000     -0.388052000000      0.399610000000
  N        -2.120642000000      0.677585000000      1.409538000000
  H        -2.666218000000      0.510628000000      2.243336000000
  H        -1.158387000000      0.740868000000      1.707997000000
  H        -2.389395000000      1.585677000000      1.059335000000
  C         0.597476000000      1.288888000000     -0.530592000000
  C         1.919106000000      1.353869000000     -0.278134000000
  C         2.714693000000      0.124452000000     -0.115613000000
  O         4.183718000000      0.254884000000      0.167795000000
  H         3.734157000000     -2.132929000000      0.097952000000
  H         0.223876000000     -2.125970000000     -0.581469000000
  H        -1.919042000000      0.835501000000     -1.357442000000
  H        -1.758928000000     -0.908993000000     -1.645073000000
  H        -3.407345000000     -0.466972000000      0.163048000000
  H        -2.006376000000     -1.360644000000      0.808617000000
  H         0.018401000000      2.207518000000     -0.630200000000
  H         2.419023000000      2.312562000000     -0.244965000000
  Cu        3.973928835661     -3.835277443918      0.154880097695
  Cu        1.875870870517     -3.924943063200     -0.449366072842
*

$new_job
%pal nprocs=16 end
%geom maxiter=150 end
%base "5_M0005"
! PBE D3 def2-TZVP opt PModel NOAUTOSTART
*xyz 0 2
  O         2.618028000000     -1.924163000000      1.148274000000
  C         1.892695000000     -0.804126000000      1.018802000000
  C         0.454162000000     -0.917308000000      0.718116000000
  C        -0.312430000000      0.161677000000      0.583028000000
  C        -1.792763000000      0.047744000000      0.298897000000
  C        -2.076905000000      0.288552000000     -1.208205000000
  N        -1.400607000000     -0.710281000000     -2.071197000000
  H        -1.633481000000     -0.576239000000     -3.045140000000
  H        -0.394596000000     -0.654169000000     -2.010265000000
  H        -1.666778000000     -1.654558000000     -1.832485000000
  C         0.304564000000      1.494500000000      0.736602000000
  C         1.600021000000      1.615279000000      1.003317000000
  C         2.439451000000      0.414011000000      1.154984000000
  O         3.898593000000      0.594624000000      1.461011000000
  H         3.541335000000     -1.806583000000      1.341918000000
  H         0.048366000000     -1.922922000000      0.613273000000
  H        -2.178466000000     -0.942209000000      0.591250000000
  H        -2.330548000000      0.799415000000      0.899384000000
  H        -3.168301000000      0.239800000000     -1.370850000000
  H        -1.742895000000      1.305141000000     -1.480160000000
  H        -0.311453000000      2.389346000000      0.641705000000
  H         2.079814000000      2.604480000000      1.061713000000
  Cu        5.191376145104     -0.884592558747      2.015652316673
  Cu        5.108325568342     -2.918991443652      1.858354038092
*
