! PBE D3 def2-TZVP opt PModel NOAUTOSTART cpcm(water)

%pal nprocs=16 end
%geom maxiter=200 end
%base "1_M0005"

* xyz -1 1
O        2.249561     -1.841863     -0.165908
O        3.249468      0.657249     -0.451620
N       -3.084232      0.242549     -1.357338
C       -2.188716     -0.077980      0.969998
C       -0.740375      0.117388      0.607627
C       -3.047488     -0.629768     -0.178708
C        0.098468     -0.976667      0.396777
C       -0.204397      1.402002      0.460742
C        1.428280     -0.756106      0.043963
C        1.143233      1.583680      0.103622
C        2.020984      0.513725     -0.123158
H       -2.616910      0.869389      1.322475
H       -2.244929     -0.765330      1.823814
H       -4.073913     -0.759665      0.181667
H       -2.691449     -1.619393     -0.486219
H       -0.256297     -1.995555      0.497450
H       -0.819276      2.282701      0.617511
H        1.526577      2.597370     -0.003164
H       -2.138388      0.248324     -1.757011
H       -3.222242      1.205217     -1.051837
H        3.074280     -1.341635     -0.388278
*

$new_job

! PBE D3 def2-TZVP opt PModel NOAUTOSTART cpcm(water)

%pal nprocs=16 end
%geom maxiter=200 end
%base "2_M0003"

* xyz -1 1
O        2.250562     -1.837087      0.120435
O        3.249215      0.590745     -0.536637
N       -2.973997     -0.755944     -1.280420
C       -2.192138      0.067321      0.963195
C       -0.742966      0.212891      0.581727
C       -3.162396      0.235163     -0.216332
C        0.098118     -0.899035      0.541937
C       -0.209018      1.460924      0.241720
C        1.428294     -0.732789      0.162699
C        1.139750      1.588258     -0.134820
C        2.019863      0.497616     -0.193566
H       -2.427422      0.814402      1.732028
H       -2.358044     -0.908916      1.437108
H       -3.070819      1.236843     -0.651038
H       -4.188312      0.143887      0.157118
H       -0.254443     -1.891885      0.794515
H       -0.827414      2.353010      0.260268
H        1.521560      2.574498     -0.394616
H       -2.879698     -1.679706     -0.858237
H       -2.048479     -0.587158     -1.692229
H        3.075798     -1.374731     -0.171712
*

$new_job

! PBE D3 def2-TZVP opt PModel NOAUTOSTART cpcm(water)

%pal nprocs=16 end
%geom maxiter=200 end
%base "3_M0004"

* xyz -1 1
O        2.316592     -1.801093      0.257262
O        3.237912      0.735278      0.459552
N       -3.220340      0.495950      1.166711
C       -2.161748     -0.219699     -0.983872
C       -0.718864      0.036438     -0.631727
C       -3.015156     -0.614276      0.230639
C        0.149710     -1.023083     -0.368749
C       -0.223821      1.341085     -0.528716
C        1.467221     -0.749389     -0.007824
C        1.113387      1.576819     -0.162743
C        2.019486      0.543168      0.118056
H       -2.199130     -1.027518     -1.726136
H       -2.593812      0.659153     -1.479454
H       -2.555203     -1.453444      0.765034
H       -3.998147     -0.949411     -0.117394
H       -0.174426     -2.054916     -0.432357
H       -0.868152      2.193757     -0.721785
H        1.463678      2.605306     -0.089691
H       -2.298196      0.881272      1.396536
H       -3.574650      0.121507      2.044976
H        3.123093     -1.267211      0.468394
*

$new_job

! PBE D3 def2-TZVP opt PModel NOAUTOSTART cpcm(water)

%pal nprocs=16 end
%geom maxiter=200 end
%base "4_M0007"

* xyz -1 1
O        2.185387     -1.873294      0.196276
O        3.274745      0.479286     -0.581660
N       -3.065325     -1.019145     -1.015728
C       -2.179358      0.247270      0.951491
C       -0.721305      0.314174      0.575653
C       -3.112091      0.241150     -0.268855
C        0.074096     -0.831151      0.585929
C       -0.139187      1.522821      0.175318
C        1.407698     -0.736242      0.192714
C        1.211117      1.578657     -0.212189
C        2.045798      0.451654     -0.225280
H       -2.415811      1.116754      1.578446
H       -2.370189     -0.631952      1.580195
H       -2.864044      1.068365     -0.943814
H       -4.142709      0.394257      0.068937
H       -0.321742     -1.795362      0.883523
H       -0.722100      2.438271      0.153397
H        1.630497      2.535483     -0.519306
H       -2.080775     -1.236236     -1.203773
H       -3.483728     -0.875277     -1.932682
H        3.026209     -1.458215     -0.120447
*

$new_job

! PBE D3 def2-TZVP opt PModel NOAUTOSTART cpcm(water)

%pal nprocs=16 end
%geom maxiter=200 end
%base "5_M0006"

* xyz -1 1
O        2.394153     -1.874655     -0.048523
O        3.462705      0.594594     -0.343502
N       -4.323272     -0.240881     -0.391632
C       -2.083782      0.002404      0.654556
C       -0.610339      0.161734      0.400458
C       -2.885648     -0.083341     -0.649455
C        0.220338     -0.953543      0.297203
C       -0.042677      1.430295      0.237326
C        1.578880     -0.768454      0.048575
C        1.333349      1.575979     -0.012973
C        2.207814      0.484141     -0.117403
H       -2.438551      0.844902      1.262683
H       -2.252558     -0.896577      1.261886
H       -2.543380     -0.930347     -1.254907
H       -2.735703      0.820432     -1.250956
H       -0.161654     -1.961703      0.405490
H       -0.654670      2.324669      0.301418
H        1.742196      2.578170     -0.132430
H       -4.636562      0.533032      0.192563
H       -4.462210     -1.085003      0.162605
H        3.243520     -1.396202     -0.220443
*



