! PBE D3 def2-TZVP opt numfreq

%base "M0001"
%pal nprocs=8 end
%geom maxiter=75 end
* xyz -2 1
O     -2.053517000000   -2.034373000000    0.185438000000
O     -3.299854000000    0.572811000000   -0.572818000000
N      2.860805000000   -0.833072000000   -1.237455000000
C      2.152337000000    0.220042000000    0.941851000000
C      0.697822000000    0.310851000000    0.581319000000
C      3.082832000000    0.258048000000   -0.280072000000
C     -0.098603000000   -0.842826000000    0.551432000000
C      0.112931000000    1.512149000000    0.227344000000
C     -1.470338000000   -0.883949000000    0.171908000000
C     -1.232297000000    1.533165000000   -0.145563000000
C     -2.078509000000    0.390321000000   -0.200609000000
H      2.404826000000    1.051022000000    1.612914000000
H      2.339631000000   -0.693917000000    1.520319000000
H      4.119799000000    0.198321000000    0.068402000000
H      2.980176000000    1.212058000000   -0.809753000000
H      0.351118000000   -1.796109000000    0.827513000000
H      0.673739000000    2.437076000000    0.225255000000
H     -1.673913000000    2.489310000000   -0.421814000000
H      1.923336000000   -0.670522000000   -1.640807000000
H      2.685580000000   -1.690041000000   -0.706467000000
*
