! PBE D3 def2-TZVP opt PModel
%pal nprocs=16 end
%geom maxiter=150 end
%base "1_M0001"
*xyz 2 2
8        2.915711000     -2.145336000     -0.071780000
6        2.182078000     -1.035316000     -0.216318000
6        0.729710000     -1.105456000     -0.496832000
6       -0.009761000      0.014983000     -0.639845000
6       -1.496476000     -0.059044000     -0.905511000
6       -2.271812000     -0.345994000      0.408601000
7       -2.054248000      0.710545000      1.426609000
1       -2.600459000      0.540476000      2.259362000
1       -1.091500000      0.765704000      1.725095000
1       -2.317673000      1.622921000      1.083567000
6        0.660670000      1.326672000     -0.513475000
6        1.982081000      1.393560000     -0.260573000
6        2.770665000      0.160014000     -0.105508000
8        4.241447000      0.249090000      0.178348000
1        2.428299000     -2.956218000     -0.163779000
1        0.249945000     -2.080013000     -0.586611000
1       -1.854382000      0.888174000     -1.339070000
1       -1.703849000     -0.854101000     -1.640670000
1       -3.348370000     -0.416589000      0.171998000
1       -1.952718000     -1.323610000      0.810152000
1        0.082070000      2.246096000     -0.608310000
1        2.484339000      2.350932000     -0.223869000
Cu2     -2.590752759      2.605550333      2.593768559
*

 $new_job
%pal nprocs=16 end
%geom maxiter=150 end
%base "2_M0002"
! PBE D3 def2-TZVP opt PModel NOAUTOSTART
*xyz 2 2
8        3.036782000     -1.702535000     -0.306303000
6        2.228842000     -0.635493000     -0.300185000
6        0.786021000     -0.762563000     -0.609398000
6       -0.028158000      0.314784000     -0.598195000
6       -1.507463000      0.201663000     -0.890934000
6       -2.321226000      0.162624000      0.430607000
7       -1.965618000     -1.005658000      1.272309000
1       -2.537300000     -1.050369000      2.104141000
1       -2.095244000     -1.877224000      0.779303000
1       -1.007543000     -0.975567000      1.588679000
6        0.550259000      1.635478000     -0.274342000
6        1.862765000      1.755194000      0.003516000
6        2.733302000      0.568036000     -0.009269000
8        4.193050000      0.713740000      0.306352000
1        2.607585000     -2.522971000     -0.521281000
1        0.379714000     -1.746234000     -0.843910000
1       -1.820982000      1.072411000     -1.489556000
1       -1.729404000     -0.699520000     -1.484919000
1       -2.142203000      1.096347000      0.991942000
1       -3.396004000      0.123931000      0.178914000
1       -0.093763000      2.515081000     -0.246660000
1        2.297513000      2.729453000      0.183049000
Cu2      -1.585323572     -2.497563442      2.466550864
*

$new_job
! PBE D3 def2-TZVP opt PModel NOAUTOSTART
%pal nprocs=16 end
%geom maxiter=150 end
%base "3_M0003"
*xyz 2 2
  O   2.11321453009376     -2.32794854753386      0.98476277851359
  C   1.72884126384579     -1.11924648333468      0.56010285037309
  C   0.47014471637733     -0.84941779106061      0.00457056000062
  C   0.12236361060552      0.43451034380445     -0.47176865444148
  C   -1.21013814440500      0.65473280255247     -1.11897380690020
  C   -2.39435941864750      0.47639948303116     -0.12091122941784
  N   -3.72861107764558      0.46909621998731     -0.69943205179169
  H   -1.52799379795498     -2.50964505844417      2.59595010567914
  H   -3.96559271357388      1.34463318552126     -1.16348020386066
  H   -3.83723992678969     -0.28089272049456     -1.38545350613952
  C   1.06945679508291      1.47913315905357     -0.34731997231741
  C   2.29942670527835      1.26377791109814      0.21935525940880
  C   2.72630911954258     -0.03331817866333      0.70809034292727
  O   3.83525778610443     -0.24124822162103      1.23450469395011
  H   1.32458446607051     -2.90907318241962      1.03162956305942
  H   -0.21114638221449     -1.69905931624248     -0.26476149380067
  H   -1.24325848228140      1.67661298997254     -1.53125486137259
  H   -1.34916651831432     -0.04175294291823     -1.96463607922668
  H   -2.24101249381464     -0.47418765934727      0.41301988060481
  H   -2.32411758593232      1.27819330356414      0.62601997549904
  H   0.80240516722990      2.47226902395533     -0.71832645390960
  H   3.02084088624298      2.07006606966474      0.32400631970951
  Cu2  -0.78753931190021     -1.67635605412526      1.58480674045290
 *

$new_job
%pal nprocs=16 end
%geom maxiter=150 end
%base "4_M0004"
! PBE D3 def2-TZVP opt PModel NOAUTOSTART
*xyz 2 2
8        2.804506000     -2.218687000     -0.081543000
6        2.120519000     -1.074250000     -0.222137000
6        0.674742000     -1.137289000     -0.501641000
6       -0.071467000     -0.023011000     -0.650644000
6       -1.557129000     -0.106674000     -0.916292000
6       -2.331361000     -0.388052000      0.399610000
7       -2.120642000      0.677585000      1.409538000
1       -2.666218000      0.510628000      2.243336000
1       -1.158387000      0.740868000      1.707997000
1       -2.389395000      1.585677000      1.059335000
6        0.597476000      1.288888000     -0.530592000
6        1.919106000      1.353869000     -0.278134000
6        2.714693000      0.124452000     -0.115613000
8        4.183718000      0.254884000      0.167795000
1        3.734157000     -2.132929000      0.097952000
1        0.223876000     -2.125970000     -0.581469000
1       -1.919042000      0.835501000     -1.357442000
1       -1.758928000     -0.908993000     -1.645073000
1       -3.407345000     -0.466972000      0.163048000
1       -2.006376000     -1.360644000      0.808617000
1        0.018401000      2.207518000     -0.630200000
1        2.419023000      2.312562000     -0.244965000
Cu2     -2.394820417      1.854854033      2.931072991
*

$new_job
%pal nprocs=16 end
%geom maxiter=150 end
%base "5_M0005"
! PBE D3 def2-TZVP opt PModel NOAUTOSTART
*xyz 2 2
8        2.618028000     -1.924163000      1.148274000
6        1.892695000     -0.804126000      1.018802000
6        0.454162000     -0.917308000      0.718116000
6       -0.312430000      0.161677000      0.583028000
6       -1.792763000      0.047744000      0.298897000
6       -2.076905000      0.288552000     -1.208205000
7       -1.400607000     -0.710281000     -2.071197000
1       -1.633481000     -0.576239000     -3.045140000
1       -0.394596000     -0.654169000     -2.010265000
1       -1.666778000     -1.654558000     -1.832485000
6        0.304564000      1.494500000      0.736602000
6        1.600021000      1.615279000      1.003317000
6        2.439451000      0.414011000      1.154984000
8        3.898593000      0.594624000      1.461011000
1        3.541335000     -1.806583000      1.341918000
1        0.048366000     -1.922922000      0.613273000
1       -2.178466000     -0.942209000      0.591250000
1       -2.330548000      0.799415000      0.899384000
1       -3.168301000      0.239800000     -1.370850000
1       -1.742895000      1.305141000     -1.480160000
1       -0.311453000      2.389346000      0.641705000
1        2.079814000      2.604480000      1.061713000
Cu2      -0.534562016     -1.858983936     -3.320650904
*
