! PBE D3 def2-TZVP opt PModel NOAUTOSTART cpcm(water)
%pal nprocs=16 end
%geom maxiter=300 end
%base "3_M0003"
*xyz 2 2
  O   2.11321453009376     -2.32794854753386      0.98476277851359
  C   1.72884126384579     -1.11924648333468      0.56010285037309
  C   0.47014471637733     -0.84941779106061      0.00457056000062
  C   0.12236361060552      0.43451034380445     -0.47176865444148
  C   -1.21013814440500      0.65473280255247     -1.11897380690020
  C   -2.39435941864750      0.47639948303116     -0.12091122941784
  N   -3.72861107764558      0.46909621998731     -0.69943205179169
  H   -1.52799379795498     -2.50964505844417      2.59595010567914
  H   -3.96559271357388      1.34463318552126     -1.16348020386066
  H   -3.83723992678969     -0.28089272049456     -1.38545350613952
  C   1.06945679508291      1.47913315905357     -0.34731997231741
  C   2.29942670527835      1.26377791109814      0.21935525940880
  C   2.72630911954258     -0.03331817866333      0.70809034292727
  O   3.83525778610443     -0.24124822162103      1.23450469395011
  H   1.32458446607051     -2.90907318241962      1.03162956305942
  H   -0.21114638221449     -1.69905931624248     -0.26476149380067
  H   -1.24325848228140      1.67661298997254     -1.53125486137259
  H   -1.34916651831432     -0.04175294291823     -1.96463607922668
  H   -2.24101249381464     -0.47418765934727      0.41301988060481
  H   -2.32411758593232      1.27819330356414      0.62601997549904
  H   0.80240516722990      2.47226902395533     -0.71832645390960
  H   3.02084088624298      2.07006606966474      0.32400631970951
  Cu2  -0.78753931190021     -1.67635605412526      1.58480674045290
 *
