%pal nprocs=16 end
%geom maxiter=300 end
%base "4_M0004"
! PBE D3 def2-TZVP slowconv opt PModel NOAUTOSTART cpcm(water)
*xyz 0 1
  O         2.804506000000     -2.218687000000     -0.081543000000
  C         2.120519000000     -1.074250000000     -0.222137000000
  C         0.674742000000     -1.137289000000     -0.501641000000
  C        -0.071467000000     -0.023011000000     -0.650644000000
  C        -1.557129000000     -0.106674000000     -0.916292000000
  C        -2.331361000000     -0.388052000000      0.399610000000
  N        -2.120642000000      0.677585000000      1.409538000000
  H        -2.666218000000      0.510628000000      2.243336000000
  H        -1.158387000000      0.740868000000      1.707997000000
  H        -2.389395000000      1.585677000000      1.059335000000
  C         0.597476000000      1.288888000000     -0.530592000000
  C         1.919106000000      1.353869000000     -0.278134000000
  C         2.714693000000      0.124452000000     -0.115613000000
  O         4.183718000000      0.254884000000      0.167795000000
  H         3.734157000000     -2.132929000000      0.097952000000
  H         0.223876000000     -2.125970000000     -0.581469000000
  H        -1.919042000000      0.835501000000     -1.357442000000
  H        -1.758928000000     -0.908993000000     -1.645073000000
  H        -3.407345000000     -0.466972000000      0.163048000000
  H        -2.006376000000     -1.360644000000      0.808617000000
  H         0.018401000000      2.207518000000     -0.630200000000
  H         2.419023000000      2.312562000000     -0.244965000000
  Cu        3.973928835661     -3.835277443918      0.154880097695
  Cu        1.875870870517     -3.924943063200     -0.449366072842
*
