! PBE D3 def2-TZVP opt numfreq
%base "1_neutral"
%pal nprocs=8 end
%geom maxiter=75 end
*xyzfile 0 1 neutral.xyz

$new_job

! PBE D3 def2-TZVP opt numfreq
%base "2_protonated"
%pal nprocs=8 end
%geom maxiter=75 end
*xyzfile 0 1 prot.xyz

$new_job

! PBE D3 def2-TZVP opt numfreq
%base "3_deprotonated"
%pal nprocs=8 end
%geom maxiter=75 end
*xyzfile 0 1 deprot.xyz

$new_job

! PBE D3 def2-TZVP opt numfreq
%base "4_2x_deprotonated"
%pal nprocs=8 end
%geom maxiter=75 end
*xyzfile 0 1 deprot2x.xyz

$new_job

! PBE D3 def2-TZVP opt numfreq
%base "5_zwitterion"
%pal nprocs=8 end
%geom maxiter=75 end
*xyzfile 0 1 zwitter.xyz