! PBE D3 def2-TZVP opt numfreq
%base "1_neutral"
%pal nprocs=8 end
%geom maxiter=75 end
*xyz 0 1 
C      0.00559   -0.84900   -0.48207
C     -1.14562    1.63764    0.02583
C     -1.33011   -0.77476   -0.08961
C      0.78526    0.30825   -0.62683
C      0.19248    1.55080   -0.36725
C     -1.90663    0.48099    0.16753
O     -3.23499    0.45535    0.54583
O     -2.06914   -1.91741    0.03888
C      2.24736    0.21069   -0.97276
C      3.15269    0.19459    0.28321
N      2.95398   -0.91353    1.21381
H      0.42783   -1.83433   -0.68843
H     -1.60258    2.61219    0.21960
H      0.77927    2.46486   -0.47605
H     -3.54095    1.36563    0.69428
H     -2.96671   -1.64928    0.31468
H      2.54112    1.06407   -1.60649
H      2.43623   -0.70461   -1.55753
H      4.20641    0.18752   -0.03902
H      3.00040    1.13395    0.83920
H      3.12571   -1.80403    0.74032
H      1.97664   -0.93777    1.51697
Cu     5.40514   -2.24836    0.69830
*

$new_job

! PBE D3 def2-TZVP opt numfreq NOAUTOSTART
%base "2_protonated"
%pal nprocs=8 end
%geom maxiter=75 end
*xyz 1 1 
C     -1.17699   -1.60635    0.21153
C      0.05430    0.76537   -0.59240
C     -1.89164   -0.41153    0.24864
C      0.15423   -1.62364   -0.21649
C      0.78046   -0.44392   -0.62984
C     -1.27540    0.79152   -0.16193
O     -3.19062   -0.27781    0.64406
O     -1.95422    1.96039   -0.15847
C      2.24399   -0.42394   -0.99999
C      3.11172   -0.24467    0.25146
N      2.62510    0.97350    1.01239
H      1.57449    0.97651    0.93726
H      2.90818    0.96715    2.00041
H      2.96307    1.84717    0.58617
H     -1.66430   -2.53613    0.51405
H      0.47251    1.69247   -0.99593
H      0.69338   -2.57192   -0.24701
H     -3.58401   -1.14591    0.84219
H     -2.87225    1.78236    0.12991
H      2.45755    0.37896   -1.72345
H      2.55108   -1.36666   -1.47424
H      2.99426   -1.09553    0.93406
H      4.17647   -0.10042    0.02936
Cu     4.50946    1.98603    4.62849
*

$new_job

! PBE D3 def2-TZVP opt numfreq NOAUTOSTART
%base "3_deprotonated"
%pal nprocs=8 end
%geom maxiter=75 end
*xyz -1 1 
O      2.37686   -1.81267   -0.06650
O      3.24099    0.51520   -0.52449
N     -3.03433    0.36663   -1.35028
C     -2.18680   -0.14342    0.99469
C     -0.73819    0.07497    0.64719
C     -3.04282   -0.57094   -0.21837
C      0.13672   -1.03264    0.49295
C     -0.23298    1.35438    0.38958
C      1.44628   -0.82997    0.10049
C      1.09821    1.57029   -0.01199
C      1.99489    0.48709   -0.17409
H     -2.61300    0.78998    1.40780
H     -2.29242   -0.91496    1.78198
H     -4.09182   -0.72855    0.09266
H     -2.67025   -1.54051   -0.58863
H     -0.21942   -2.04996    0.68988
H     -0.89906    2.21623    0.51616
H      1.46559    2.58432   -0.19441
H     -2.04631    0.54836   -1.56938
H     -3.38020    1.27190   -1.01332
H      3.15028   -1.20010   -0.33952
Cu    -4.64661   -0.79462   -2.90788
*

$new_job

! PBE D3 def2-TZVP opt numfreq NOAUTOSTART
%base "4_2x_deprotonated"
%pal nprocs=8 end
%geom maxiter=75 end
*xyzfile -2 1
O     -2.04541   -2.00882   -0.09340
O     -3.33298    0.49041   -0.60374
N      2.76830   -0.98650   -1.17658
C      2.17495    0.33406    0.91521
C      0.71063    0.37700    0.58365
C      3.08869    0.17209   -0.32293
C     -0.03810   -0.82481    0.41109
C      0.05466    1.59261    0.35530
C     -1.41523   -0.89879    0.01611
C     -1.29680    1.60308   -0.05598
C     -2.10220    0.43189   -0.25169
H      2.48760    1.26215    1.44138
H      2.39989   -0.51386    1.60323
H      4.15855    0.09744   -0.01239
H      2.99336    1.08212   -0.94138
H      0.43923   -1.79150    0.64252
H      0.60669    2.53778    0.47627
H     -1.80954    2.56280   -0.22347
H      1.73658   -0.95617   -1.27291
H      2.89903   -1.82262   -0.59194
Cu     5.10728   -1.03956   -4.00623
*

$new_job

! PBE D3 def2-TZVP opt numfreq NOAUTOSTART
%base "5_zwitterion"
%pal nprocs=8 end
%geom maxiter=75 end
*xyz 0 1
O      2.73505   -2.10741    0.20340
C      1.96090   -1.01083   -0.06068
C      0.67426   -1.11664   -0.55996
C     -0.10629    0.02665   -0.87653
C     -1.59079   -0.09092   -1.04140
C     -2.22313   -0.30878    0.36307
N     -1.51901    0.62288    1.31690
H     -1.30920    0.20045    2.22537
H     -0.57472    0.85780    0.78047
H     -2.03295    1.49672    1.46742
C      0.48330    1.29252   -0.63537
C      1.77356    1.41768   -0.11556
C      2.59717    0.28597    0.24451
O      3.73892    0.36553    0.74988
H      2.24778   -2.89566   -0.09671
H      0.24826   -2.11589   -0.72898
H     -2.01031    0.82093   -1.49692
H     -1.89487   -0.94154   -1.67070
H     -3.30535   -0.12360    0.41208
H     -2.01269   -1.32725    0.70894
H     -0.07431    2.19454   -0.92022
H      2.22018    2.40436    0.02256
Cu    -2.92340    0.63634    4.52517
*