# preopt in PBE-D3

! B3LYP D3 TightSCF def2-TZVP slowconv PModel cpcm(water) opt numfreq
%pal nprocs=16 end
%geom maxiter=150 end
%elprop Polar 1 end
%base "neutral"
*xyz 0 2
  C   -0.16956275902319     -1.05723776953197     -0.42855573482908
  C   -1.12049633747951      1.56689456986943     -0.40457714593906
  C   -1.49766850531287     -0.80182883019116     -0.09789615908916
  C   0.70732932900320     -0.00823930703059     -0.75419200869246
  C   0.21367419221910      1.30221872431803     -0.73622877732475
  C   -1.98334857764453      0.52206579760669     -0.08371303193396
  O   -3.28969424706806      0.78221108257525      0.23679794331409
  O   -2.41559817817122     -1.77020993683817      0.22649082221633
  C   2.15856108487085     -0.29741264721991     -1.04859825776193
  C   2.97699274407939     -0.56111664179439      0.22438078848305
  N   3.00140109056235      0.59987802667241      1.15141474454759
  H   0.18425558916964     -2.09273283462065     -0.43226705452194
  H   -1.50434247619658      2.58866486627717     -0.39495791168826
  H   0.87782850150056      2.13121758201600     -0.98897223308437
  H   -3.72644112671859     -0.07268297627110      0.42468394020453
  H   -1.99410558179115     -2.64896350266336      0.18712276410747
  H   2.60584930272273      0.55084901765693     -1.59067756468002
  H   2.24956711915552     -1.18389655493360     -1.69625431507643
  H   2.55895834412829     -1.41779134519945      0.77113567634485
  H   4.01534790078667     -0.80613156929532     -0.03624050077794
  H   2.03329879380544      0.87750018145755      1.35629998853939
  H   3.41350574596892      1.40462765690431      0.66496033844458
  Cu  5.02114396194472      0.09179327663091      4.89000358850794
  Cu  3.94820870312324      0.34900523529700      2.87477731823652
*


$new_job

! B3LYP D3 TightSCF def2-TZVP slowconv PModel cpcm(water) opt numfreq
%pal nprocs=16 end
%geom maxiter=150 end
%elprop Polar 1 end
%base "protonated"
*xyz 1 2
  C   -0.90555691796236     -1.76727196196750      0.06781371989323
  C   -0.12834988709469      0.92274951786431      0.27523755411363
  C   -1.80381126969437     -0.75055130417119     -0.30261320008491
  C   0.38618984625102     -1.42703607492861      0.55791935662923
  C   0.78429358859036     -0.07478825507147      0.64934866445700
  C   -1.40302561317021      0.60000140186490     -0.19490258576677
  O   -3.05051051858996     -1.08082130972810     -0.72823220400369
  O   -2.34302401539286      1.51694514377157     -0.56538160180721
  C   2.16328992340225      0.29707393066189      1.13544356823738
  C   3.07847444984984      0.87939305022518      0.05980406178152
  N   3.49433775360465     -0.14528000282081     -0.95183106658424
  H   2.67732043509841     -0.52668097524284     -1.52095056778184
  H   4.15878154021069      0.25526394417826     -1.62786300425135
  H   3.95537783810907     -0.95009205225430     -0.50552217070248
  H   -1.25254838851214     -2.80172036596369      0.07740172612679
  H   0.15383003645268      1.97713903579491      0.34361163442234
  H   1.04001011376029     -2.21271236491610      0.94086042341998
  H   -3.52734240454617     -0.25626197954279     -0.95548314521913
  H   -1.99078192515984      2.42160990285829     -0.46422612206559
  H   2.64874967274188     -0.57704322548680      1.59562618502889
  H   2.08346617924978      1.06595788620024      1.91940314460614
  H   2.58715152857642      1.68865588234252     -0.49485351875117
  H   3.99923751311326      1.26964953991042      0.50998323011687
  Cu  0.50815416230542     -1.55136817752279     -1.56549688258349
  Cu  1.59341250580748     -1.25898787843247     -3.55746432771010
*


$new_job

! B3LYP D3 TightSCF def2-TZVP slowconv PModel cpcm(water) opt numfreq
%pal nprocs=16 end
%geom maxiter=150 end
%elprop Polar 1 end
%base "deprotonated"
*xyz -1 2
  O   2.31492786438966     -1.88111046153497     -0.35995601435756
  O   3.32215631797726      0.47281535203735     -0.38750329221530
  N   -2.94594324708543      0.70379108933975     -1.08282437235664
  C   -2.12324767925480     -0.19852765943722      1.11322762861623
  C   -0.66904514744192      0.01255725444151      0.76826759696115
  C   -2.99625876990075     -0.43648939647672     -0.12847501122529
  C   0.14077087930782     -1.08701929460024      0.38927482100724
  C   -0.09984580535831      1.29090730067584      0.74491582238464
  C   1.45637917764210     -0.87912000154714      0.01393297570922
  C   1.23876312933849      1.50521773576701      0.36474716585754
  C   2.06972870523363      0.42744040671043     -0.01686039104136
  H   -2.51125902558707      0.68055712731164      1.65410752196721
  H   -2.24749789616294     -1.06865410638947      1.78007701132043
  H   -4.04632338659281     -0.59465896119588      0.15432197814706
  H   -2.65379480289609     -1.33443038369679     -0.66186903265321
  H   -0.27044086685890     -2.10143701090159      0.39379138751322
  H   -0.71479671895292      2.14780395547732      1.03714876749039
  H   1.65338848302474      2.51761462704979      0.36400324968783
  H   -1.95532646168415      0.93704608296165     -1.23733186410258
  H   -3.34256107837562      1.53257045954505     -0.62477779340458
  H   3.13393620683108     -1.31675605984705     -0.54045410433459
  Cu  -4.82005470809202      0.16072103823250     -4.88906016197419
  Cu  -3.82075354936399      0.44527003202422     -2.83741914032483
*

$new_job

! B3LYP D3 TightSCF def2-TZVP slowconv PModel cpcm(water) opt numfreq
%pal nprocs=16 end
%geom maxiter=150 end
%elprop Polar 1 end
%base "2x_deprotonated"
*xyz -2 2
  O   2.04500831622719     -1.66736970735333      0.98915238049675
  O   3.05148002359569      0.97100191379782      0.86397102036135
  N   -3.68642067510173      0.27370707678023      0.76426055932533
  C   -2.17860274253721     -0.26158633006809     -1.13375339037480
  C   -0.84396185236192      0.09711732451515     -0.52048305884621
  C   -3.22786359534133     -0.78845990916295     -0.14625364567804
  C   -0.02056784394365     -0.90357101358277      0.06870726128312
  C   -0.36064428144890      1.41966028503319     -0.52648891478644
  C   1.31384225961165     -0.70256944501393      0.55373068323946
  C   0.92934067253038      1.70872474056965      0.03752013694052
  C   1.84656594552083      0.70229255541698      0.50558421700988
  H   -2.02886391103079     -1.03665520762076     -1.90635503346661
  H   -2.59302557004625      0.62412683272668     -1.64290524856236
  H   -2.80471646763263     -1.66403659690741      0.38565051651787
  H   -4.09869008084708     -1.15136281412736     -0.71586583929577
  H   -0.39493308541852     -1.93365408342772      0.10380399235223
  H   -0.95241076622611      2.21962843147823     -0.97695889133384
  H   1.30202398057182      2.73705380067501     -0.00135803957858
  H   -2.87764531127628      0.58744326716065      1.33142468162053
  H   -4.33965387412065     -0.12902197132342      1.44283786225421
  Cu  -1.42737081565598      1.08811498504648      3.66984439127960
  Cu  -0.40764220833537      1.06101800352666      1.61363687315076
*

$new_job

! B3LYP D3 TightSCF def2-TZVP slowconv PModel cpcm(water) opt numfreq
%pal nprocs=16 end
%geom maxiter=150 end
%elprop Polar 1 end
%base "zwitterione"
*xyz 0 2
  O   2.43450991500708     -2.13745678577080      1.15582492680410
  C   1.78207340494618     -1.09755830124653      0.56407091176490
  C   0.43534387093663     -1.15676452588701      0.15814626157475
  C   -0.13058572085145     -0.06608578551048     -0.57892209380527
  C   -1.55864124719162     -0.12892220411612     -1.06446292572923
  C   -2.62511294311345     -0.16731748131176      0.02887220517868
  N   -2.61150230494416      1.07755979107940      0.86392871762869
  H   -1.73022345544140      1.12947620905341      1.46463528096524
  H   -2.65269580816235      1.92598756254196      0.28334198190467
  H   -3.41042637007737      1.09979458127936      1.51112481175910
  C   0.68866743947902      1.03851296154222     -0.85729909921353
  C   2.02975354833404      1.10825964494483     -0.43971062349239
  C   2.64737191028949      0.03673493287782      0.26209582425099
  O   3.87935034913508     -0.06423834146255      0.63097045573007
  H   3.35386988359056     -1.73450928115483      1.23715606839358
  H   -0.13987347822420     -2.07099650002301      0.32577108347042
  H   -1.75451869317885      0.73098758085042     -1.72413325889540
  H   -1.71754644916329     -1.03504001756551     -1.67238340233440
  H   -3.62746402860688     -0.25156771695072     -0.40821065416189
  H   -2.46717112347315     -1.00514149069399      0.72017962738677
  H   0.26127358964327      1.87773391543804     -1.41238605442837
  H   2.63412200643189      1.98374330620523     -0.68851292079098
  Cu  -0.39738129103119      1.59086667066051      3.42377031217403
  Cu  0.42822388896515      0.20681791092810      1.79723380288144
*
