! PBE D3 def2-TZVP opt 

%base "cu2"
%pal nprocs=8 end
%geom maxiter=75 end
*xyzfile 0 1 cu+cu.xyz
