! B3LYP D3 TightSCF def2-TZVP slowconv PModel cpcm(water) opt numfreq
%pal nprocs=16 end
%geom maxiter=150 end
%elprop Polar 1 end
%base "cu8"
*xyz 0 1
  Cu     0.000000000000    1.843511000000    0.587365000000
  Cu    -1.459876000000   -0.000000000000    2.139021000000
  Cu     1.854191000000    0.000000000000   -0.594171000000
  Cu    -0.000000000000    1.460941000000   -2.132216000000
  Cu     0.000000000000   -1.843511000000    0.587365000000
  Cu    -1.854191000000    0.000000000000   -0.594171000000
  Cu    -0.000000000000   -1.460941000000   -2.132216000000
  Cu     1.459876000000    0.000000000000    2.139021000000
*