! B3LYP D3 TightSCF def2-TZVP slowconv PModel cpcm(water) opt numfreq
%pal nprocs=16 end
%geom maxiter=150 end
%elprop Polar 1 end
%base "cu2"
*xyz 0 1
  Cu    -2.630013769000    0.000000000000   -3.527558151000
  Cu    -2.630013769000    0.000000000000   -6.267558151000
*
