! PBE D3 def2-TZVP opt PModel
%pal nprocs=8 end
%geom maxiter=75 end
*xyzfile 0 2 1_M0018.xyz

$new_job
%pal nprocs=8 end
%geom maxiter=75 end
! PBE D3 def2-TZVP opt PModel NOAUTOSTART
*xyzfile 0 2 2_M0016.xyz

$new_job
%pal nprocs=8 end
%geom maxiter=75 end
! PBE D3 def2-TZVP opt PModel NOAUTOSTART
*xyzfile 0 2 3_M0017.xyz

$new_job
%pal nprocs=8 end
%geom maxiter=75 end
! PBE D3 def2-TZVP opt PModel NOAUTOSTART
*xyzfile 0 2 4_M0019.xyz

$new_job
%pal nprocs=8 end
%geom maxiter=75 end
! PBE D3 def2-TZVP opt PModel NOAUTOSTART
*xyzfile 0 2 5_M0019.xyz
