! PBE D3 def2-TZVP opt PModel
%pal nprocs=8 end
%geom maxiter=75 end
%base "1_M0005"
*xyz -1 2
8        2.249561000     -1.841863000     -0.165908000
8        3.249468000      0.657249000     -0.451620000
7       -3.084232000      0.242549000     -1.357338000
6       -2.188716000     -0.077980000      0.969998000
6       -0.740375000      0.117388000      0.607627000
6       -3.047488000     -0.629768000     -0.178708000
6        0.098468000     -0.976667000      0.396777000
6       -0.204397000      1.402002000      0.460742000
6        1.428280000     -0.756106000      0.043963000
6        1.143233000      1.583680000      0.103622000
6        2.020984000      0.513725000     -0.123158000
1       -2.616910000      0.869389000      1.322475000
1       -2.244929000     -0.765330000      1.823814000
1       -4.073913000     -0.759665000      0.181667000
1       -2.691449000     -1.619393000     -0.486219000
1       -0.256297000     -1.995555000      0.497450000
1       -0.819276000      2.282701000      0.617511000
1        1.526577000      2.597370000     -0.003164000
1       -2.138388000      0.248324000     -1.757011000
1       -3.222242000      1.205217000     -1.051837000
1        3.074280000     -1.341635000     -0.388278000
29       4.538269791     -0.582192469     -0.829234464
*

$new_job
%pal nprocs=8 end
%geom maxiter=75 end
%base "2_M0003"
! PBE D3 def2-TZVP opt PModel NOAUTOSTART
*xyz -1 2
8        2.250562000     -1.837087000      0.120435000
8        3.249215000      0.590745000     -0.536637000
7       -2.973997000     -0.755944000     -1.280420000
6       -2.192138000      0.067321000      0.963195000
6       -0.742966000      0.212891000      0.581727000
6       -3.162396000      0.235163000     -0.216332000
6        0.098118000     -0.899035000      0.541937000
6       -0.209018000      1.460924000      0.241720000
6        1.428294000     -0.732789000      0.162699000
6        1.139750000      1.588258000     -0.134820000
6        2.019863000      0.497616000     -0.193566000
1       -2.427422000      0.814402000      1.732028000
1       -2.358044000     -0.908916000      1.437108000
1       -3.070819000      1.236843000     -0.651038000
1       -4.188312000      0.143887000      0.157118000
1       -0.254443000     -1.891885000      0.794515000
1       -0.827414000      2.353010000      0.260268000
1        1.521560000      2.574498000     -0.394616000
1       -2.879698000     -1.679706000     -0.858237000
1       -2.048479000     -0.587158000     -1.692229000
1        3.075798000     -1.374731000     -0.171712000
29       4.309938609     -0.489020582     -0.911758128
*

$new_job
%pal nprocs=8 end
%geom maxiter=75 end
%base "3_M0004"
! PBE D3 def2-TZVP opt PModel NOAUTOSTART
*xyz -1 2
8        2.316592000     -1.801093000      0.257262000
8        3.237912000      0.735278000      0.459552000
7       -3.220340000      0.495950000      1.166711000
6       -2.161748000     -0.219699000     -0.983872000
6       -0.718864000      0.036438000     -0.631727000
6       -3.015156000     -0.614276000      0.230639000
6        0.149710000     -1.023083000     -0.368749000
6       -0.223821000      1.341085000     -0.528716000
6        1.467221000     -0.749389000     -0.007824000
6        1.113387000      1.576819000     -0.162743000
6        2.019486000      0.543168000      0.118056000
1       -2.199130000     -1.027518000     -1.726136000
1       -2.593812000      0.659153000     -1.479454000
1       -2.555203000     -1.453444000      0.765034000
1       -3.998147000     -0.949411000     -0.117394000
1       -0.174426000     -2.054916000     -0.432357000
1       -0.868152000      2.193757000     -0.721785000
1        1.463678000      2.605306000     -0.089691000
1       -2.298196000      0.881272000      1.396536000
1       -3.574650000      0.121507000      2.044976000
1        3.123093000     -1.267211000      0.468394000
29       4.589737867     -0.397587982      0.709869579
*

$new_job
%pal nprocs=8 end
%geom maxiter=75 end
%base "4_M0007"
! PBE D3 def2-TZVP opt PModel NOAUTOSTART
*xyz -1 2
8        2.185387000     -1.873294000      0.196276000
8        3.274745000      0.479286000     -0.581660000
7       -3.065325000     -1.019145000     -1.015728000
6       -2.179358000      0.247270000      0.951491000
6       -0.721305000      0.314174000      0.575653000
6       -3.112091000      0.241150000     -0.268855000
6        0.074096000     -0.831151000      0.585929000
6       -0.139187000      1.522821000      0.175318000
6        1.407698000     -0.736242000      0.192714000
6        1.211117000      1.578657000     -0.212189000
6        2.045798000      0.451654000     -0.225280000
1       -2.415811000      1.116754000      1.578446000
1       -2.370189000     -0.631952000      1.580195000
1       -2.864044000      1.068365000     -0.943814000
1       -4.142709000      0.394257000      0.068937000
1       -0.321742000     -1.795362000      0.883523000
1       -0.722100000      2.438271000      0.153397000
1        1.630497000      2.535483000     -0.519306000
1       -2.080775000     -1.236236000     -1.203773000
1       -3.483728000     -0.875277000     -1.932682000
1        3.026209000     -1.458215000     -0.120447000
29       4.460541262     -0.821593832     -0.672587706
*

$new_job
%pal nprocs=8 end
%geom maxiter=75 end
%base "5_M0006"
! PBE D3 def2-TZVP opt PModel NOAUTOSTART
*xyz -1 2
8        2.394153000     -1.874655000     -0.048523000
8        3.462705000      0.594594000     -0.343502000
7       -4.323272000     -0.240881000     -0.391632000
6       -2.083782000      0.002404000      0.654556000
6       -0.610339000      0.161734000      0.400458000
6       -2.885648000     -0.083341000     -0.649455000
6        0.220338000     -0.953543000      0.297203000
6       -0.042677000      1.430295000      0.237326000
6        1.578880000     -0.768454000      0.048575000
6        1.333349000      1.575979000     -0.012973000
6        2.207814000      0.484141000     -0.117403000
1       -2.438551000      0.844902000      1.262683000
1       -2.252558000     -0.896577000      1.261886000
1       -2.543380000     -0.930347000     -1.254907000
1       -2.735703000      0.820432000     -1.250956000
1       -0.161654000     -1.961703000      0.405490000
1       -0.654670000      2.324669000      0.301418000
1        1.742196000      2.578170000     -0.132430000
1       -4.636562000      0.533032000      0.192563000
1       -4.462210000     -1.085003000      0.162605000
1        3.243520000     -1.396202000     -0.220443000
29       5.169911349     -0.501927232     -0.674904578
*
