! PBE D3 def2-TZVP numfreq PModel NOAUTOSTART cpcm(water)

%pal nprocs=16 end
%geom maxiter=150 end 
%base "1_M0001"

* xyz 0 1
8        2.915711000     -2.145336000     -0.071780000
6        2.182078000     -1.035316000     -0.216318000
6        0.729710000     -1.105456000     -0.496832000
6       -0.009761000      0.014983000     -0.639845000
6       -1.496476000     -0.059044000     -0.905511000
6       -2.271812000     -0.345994000      0.408601000
7       -2.054248000      0.710545000      1.426609000
1       -2.600459000      0.540476000      2.259362000
1       -1.091500000      0.765704000      1.725095000
1       -2.317673000      1.622921000      1.083567000
6        0.660670000      1.326672000     -0.513475000
6        1.982081000      1.393560000     -0.260573000
6        2.770665000      0.160014000     -0.105508000
8        4.241447000      0.249090000      0.178348000
1        2.428299000     -2.956218000     -0.163779000
1        0.249945000     -2.080013000     -0.586611000
1       -1.854382000      0.888174000     -1.339070000
1       -1.703849000     -0.854101000     -1.640670000
1       -3.348370000     -0.416589000      0.171998000
1       -1.952718000     -1.323610000      0.810152000
1        0.082070000      2.246096000     -0.608310000
1        2.484339000      2.350932000     -0.223869000
29       6.691820210      0.397493668      0.651261823
29       8.446657422     -0.042076986      2.878347001
29       8.002573990     -2.002591909      0.904232912
29       9.149394705     -0.042076986     -0.762842004
29       7.556330665      2.508281568      2.304925392
29       8.109622797      2.508281567     -0.561922974
29      10.069866436      1.723349626      1.303213430
29      10.679599639     -0.951880886      1.420889896
*

$new_job

! PBE D3 def2-TZVP numfreq PModel NOAUTOSTART cpcm(water)
%pal nprocs=16 end
%geom maxiter=150 end
%base "2_M0002"

* xyz 0 1
8        3.036782000     -1.702535000     -0.306303000
6        2.228842000     -0.635493000     -0.300185000
6        0.786021000     -0.762563000     -0.609398000
6       -0.028158000      0.314784000     -0.598195000
6       -1.507463000      0.201663000     -0.890934000
6       -2.321226000      0.162624000      0.430607000
7       -1.965618000     -1.005658000      1.272309000
1       -2.537300000     -1.050369000      2.104141000
1       -2.095244000     -1.877224000      0.779303000
1       -1.007543000     -0.975567000      1.588679000
6        0.550259000      1.635478000     -0.274342000
6        1.862765000      1.755194000      0.003516000
6        2.733302000      0.568036000     -0.009269000
8        4.193050000      0.713740000      0.306352000
1        2.607585000     -2.522971000     -0.521281000
1        0.379714000     -1.746234000     -0.843910000
1       -1.820982000      1.072411000     -1.489556000
1       -1.729404000     -0.699520000     -1.484919000
1       -2.142203000      1.096347000      0.991942000
1       -3.396004000      0.123931000      0.178914000
1       -0.093763000      2.515081000     -0.246660000
1        2.297513000      2.729453000      0.183049000
29       6.625039086      0.956487747      0.832187163
29       8.344571161      0.598416387      3.101014776
29       8.017679616     -1.391354873      1.133298448
29       9.128273436      0.598416387     -0.523610419
29       7.373588640      3.109749606      2.487646016
29       7.990627630      3.109749606     -0.366161025
29       9.936263153      2.411601643      1.548127072
29      10.641750207     -0.238209841      1.700664722
*

$new_job

! PBE D3 def2-TZVP numfreq PModel NOAUTOSTART cpcm(water)
%pal nprocs=16 end
%geom maxiter=150 end
%base "3_M0003"

* xyz 0 1
8        3.266227000     -1.923031000      0.058566000
6        2.503268000     -0.827159000     -0.032295000
6        1.054011000     -0.921893000     -0.322149000
6        0.288854000      0.183707000     -0.415727000
6       -1.194899000      0.091014000     -0.693917000
6       -1.967532000     -0.104657000      0.637082000
7       -3.430612000     -0.190154000      0.411878000
1       -3.933738000     -0.317680000      1.278720000
1       -3.794872000      0.647699000     -0.018286000
1       -3.674344000     -0.966536000     -0.186082000
6        0.922929000      1.504249000     -0.218418000
6        2.238153000      1.594719000      0.046769000
6        3.059206000      0.376299000      0.141631000
8        4.526340000      0.490008000      0.435425000
1        2.801305000     -2.741018000     -0.076727000
1        0.601652000     -1.903620000     -0.462029000
1       -1.542037000      1.011985000     -1.188480000
1       -1.407397000     -0.748654000     -1.375108000
1       -1.610079000     -1.028101000      1.125669000
1       -1.740961000      0.742621000      1.308043000
1        0.317907000      2.410130000     -0.268514000
1        2.717459000      2.564001000      0.129175000
29       6.970625546      0.679450318      0.924893874
29       8.716673556      0.275230988      3.165542770
29       8.318122297     -1.698347262      1.194730481
29       9.444822158      0.275230988     -0.470649837
29       7.789360493      2.809073869      2.577704723
29       8.362659937      2.809073868     -0.285209787
29      10.322190840      2.061729751      1.596045776
29      10.974162403     -0.602921904      1.726603267
*

$new_job

! PBE D3 def2-TZVP numfreq PModel NOAUTOSTART cpcm(water)
%pal nprocs=16 end
%geom maxiter=150 end
%base "4_M0004"

* xyz 0 1
8        2.804506000     -2.218687000     -0.081543000
6        2.120519000     -1.074250000     -0.222137000
6        0.674742000     -1.137289000     -0.501641000
6       -0.071467000     -0.023011000     -0.650644000
6       -1.557129000     -0.106674000     -0.916292000
6       -2.331361000     -0.388052000      0.399610000
7       -2.120642000      0.677585000      1.409538000
1       -2.666218000      0.510628000      2.243336000
1       -1.158387000      0.740868000      1.707997000
1       -2.389395000      1.585677000      1.059335000
6        0.597476000      1.288888000     -0.530592000
6        1.919106000      1.353869000     -0.278134000
6        2.714693000      0.124452000     -0.115613000
8        4.183718000      0.254884000      0.167795000
1        3.734157000     -2.132929000      0.097952000
1        0.223876000     -2.125970000     -0.581469000
1       -1.919042000      0.835501000     -1.357442000
1       -1.758928000     -0.908993000     -1.645073000
1       -3.407345000     -0.466972000      0.163048000
1       -2.006376000     -1.360644000      0.808617000
1        0.018401000      2.207518000     -0.630200000
1        2.419023000      2.312562000     -0.244965000
29       6.629178090      0.472011857      0.639579315
29       8.395269957      0.091728167      2.868679632
29       8.004402706     -1.890369892      0.904891109
29       9.097746992      0.091728167     -0.772559590
29       7.436251474      2.614029534      2.282077386
29       7.989338704      2.614029533     -0.584810519
29       9.970107588      1.892183970      1.284119842
29      10.652014182     -0.764915438      1.415674978
*

$new_job

! PBE D3 def2-TZVP numfreq PModel NOAUTOSTART cpcm(water)
%pal nprocs=16 end
%geom maxiter=150 end
%base "5_M0005"

* xyz 0 1
8        2.618028000     -1.924163000      1.148274000
6        1.892695000     -0.804126000      1.018802000
6        0.454162000     -0.917308000      0.718116000
6       -0.312430000      0.161677000      0.583028000
6       -1.792763000      0.047744000      0.298897000
6       -2.076905000      0.288552000     -1.208205000
7       -1.400607000     -0.710281000     -2.071197000
1       -1.633481000     -0.576239000     -3.045140000
1       -0.394596000     -0.654169000     -2.010265000
1       -1.666778000     -1.654558000     -1.832485000
6        0.304564000      1.494500000      0.736602000
6        1.600021000      1.615279000      1.003317000
6        2.439451000      0.414011000      1.154984000
8        3.898593000      0.594624000      1.461011000
1        3.541335000     -1.806583000      1.341918000
1        0.048366000     -1.922922000      0.613273000
1       -2.178466000     -0.942209000      0.591250000
1       -2.330548000      0.799415000      0.899384000
1       -3.168301000      0.239800000     -1.370850000
1       -1.742895000      1.305141000     -1.480160000
1       -0.311453000      2.389346000      0.641705000
1        2.079814000      2.604480000      1.061713000
29       6.327600008      0.895287159      1.970448551
29       8.068766699      0.587650758      4.230157115
29       7.775249074     -1.418715818      2.274065129
29       8.829967269      0.587650758      0.600739703
29       7.037009699      3.073166017      3.610871866
29       7.636332230      3.073166018      0.753291728
29       9.609115628      2.428949199      2.658683405
29      10.375776389     -0.203323149      2.819475769
*



