! PBE D3 def2-TZVP opt PModel NOAUTOSTART cpcm(water)

%pal nprocs=16 end
%geom maxiter=200 end
%base "1_M00018"

* xyz 0 1
C       -0.074381     -1.017724     -0.365733
C       -1.104295      1.582582     -0.145174
C       -1.404297     -0.807838     -0.028468
C        0.764127      0.082008     -0.598285
C        0.237318      1.380673     -0.485702
C       -1.918680      0.480698      0.082127
O       -3.237740      0.612654      0.417989
O       -2.212182     -1.885801      0.196219
C        2.216363     -0.129253     -0.958825
C        3.082353     -0.623390      0.210232
N        3.177358      0.336596      1.311590
H        0.300199     -2.034529     -0.445753
H       -1.486399      2.594964     -0.065194
H        0.872918      2.245792     -0.664027
H       -3.446612      1.561874      0.452057
H       -3.082382     -1.496456      0.413871
H        2.639984      0.798710     -1.364264
H        2.266265     -0.859784     -1.776551
H        2.697246     -1.571127      0.602530
H        4.094823     -0.820415     -0.159063
H        2.243593      0.479729      1.700370
H        3.467199      1.243717      0.950192
*

$new_job

! PBE D3 def2-TZVP opt PModel NOAUTOSTART cpcm(water)

%pal nprocs=16 end
%geom maxiter=200 end
%base "2_M00016"

* xyz 0 1
C       -0.046652     -0.911071     -0.532758
C       -1.135871      1.590984      0.120364
C       -1.381293     -0.790692     -0.171165
C        0.766734      0.230357     -0.570469
C        0.210423      1.479188     -0.241853
C       -1.925139      0.448711      0.153453
O       -3.247017      0.492122      0.501091
O       -2.163985     -1.909307     -0.134001
C        2.225367      0.115784     -0.948125
C        3.187017      0.283614      0.238177
N        3.056643     -0.765978      1.249695
H        0.350146     -1.891510     -0.780768
H       -1.540199      2.566466      0.369856
H        0.828192      2.374941     -0.266569
H       -3.475863      1.416560      0.698663
H       -3.044027     -1.580947      0.138402
H        2.448055      0.881624     -1.702239
H        2.410633     -0.847709     -1.440388
H        4.216463      0.270880     -0.136514
H        3.036819      1.255781      0.720669
H        3.152908     -1.679303      0.806926
H        2.104875     -0.748710      1.621641
*

$new_job

! PBE D3 def2-TZVP opt PModel NOAUTOSTART cpcm(water)

%pal nprocs=16 end
%geom maxiter=200 end
%base "3_M00017"

* xyz 0 1
C       -0.096290     -0.980680     -0.380034
C       -1.093748      1.628719     -0.119334
C       -1.426063     -0.761674     -0.034967
C        0.753785      0.116531     -0.597470
C        0.242883      1.419760     -0.465428
C       -1.916883      0.534394      0.093448
O       -3.223537      0.738544      0.432986
O       -2.294151     -1.794580      0.190192
C        2.204965     -0.098569     -0.963399
C        3.061932     -0.647382      0.187695
N        3.161017      0.263425      1.328196
H        0.289586     -1.990431     -0.482505
H       -1.488408      2.634977     -0.017445
H        0.883530      2.283311     -0.631270
H       -3.593589     -0.161702      0.527334
H       -1.807899     -2.628635      0.073169
H        2.641810      0.838598     -1.331885
H        2.246887     -0.798253     -1.808050
H        2.665647     -1.606474      0.539090
H        4.073806     -0.840366     -0.185405
H        2.224215      0.433815      1.699234
H        3.495319      1.172886      1.011874
*

$new_job

! PBE D3 def2-TZVP opt PModel NOAUTOSTART cpcm(water)

%pal nprocs=16 end
%geom maxiter=200 end
%base "4_M00019"

* xyz 0 1
C       -0.097842     -0.920923     -0.507016
C       -1.088360      1.633502      0.099122
C       -1.428703     -0.744990     -0.141290
C        0.756518      0.192278     -0.571721
C        0.248624      1.467925     -0.268154
C       -1.915788      0.523640      0.159826
O       -3.223202      0.684992      0.518892
O       -2.301868     -1.795143     -0.062972
C        2.207753      0.023049     -0.960862
C        3.195356      0.258187      0.192596
N        3.050100     -0.699765      1.289265
H        0.284043     -1.909754     -0.741520
H       -1.479477      2.618504      0.334658
H        0.893223      2.343263     -0.316124
H       -3.596815     -0.218147      0.490285
H       -1.826082     -2.604210     -0.317039
H        2.430202      0.726552     -1.773489
H        2.368378     -0.977823     -1.382028
H        4.216832      0.180995     -0.195948
H        3.085180      1.271284      0.594843
H        3.090981     -1.649669      0.924310
H        2.118048     -0.597443      1.694836
*

$new_job

! PBE D3 def2-TZVP opt PModel NOAUTOSTART cpcm(water)

%pal nprocs=16 end
%geom maxiter=200 end
%base "5_M00009"

* xyz 0 1
C       -0.049461     -0.828565     -0.561212
C       -1.172466      1.627940      0.197374
C       -1.385624     -0.747650     -0.184629
C        0.742258      0.331521     -0.562141
C        0.170509      1.557196     -0.178807
C       -1.939028      0.473028      0.191172
O       -3.251769      0.541284      0.560998
O       -2.197998     -1.848023     -0.165013
C        2.201740      0.257709     -0.950510
C        3.155311      0.222943      0.252043
N        3.032140     -1.008935      1.033705
H        0.391890     -1.778825     -0.848292
H       -1.615604      2.574160      0.491949
H        0.769067      2.465545     -0.172506
H       -3.575698     -0.377350      0.474120
H       -1.673244     -2.611967     -0.460856
H        2.440663      1.130512     -1.571924
H        2.374118     -0.616184     -1.592177
H        4.185601      0.294398     -0.113247
H        2.980476      1.084018      0.907054
H        2.091859     -1.052374      1.430225
H        3.664593     -0.960214      1.832092
*



