! PBE D3 def2-TZVP numfreq PModel NOAUTOSTART cpcm(water)
%pal nprocs=16 end
%geom maxiter=150 end

%base "CU8_D2d_0"

* xyz 0 1
Cu       0.548994000      0.068062000     -0.024959000
Cu       5.136153000     -0.252167000     -0.145640000
Cu       1.603282000      2.691800000     -0.355967000
Cu       2.732076000     -1.616725000      0.400446000
Cu       4.377238000      2.464692000     -0.111015000
Cu       2.947801000      0.458021000     -1.571299000
Cu       2.690829000      0.948306000      1.534544000
Cu       0.578743000      1.275616000     -2.609917000
*

$new_job
! PBE D3 def2-TZVP numfreq PModel NOAUTOSTART cpcm(water)
%pal nprocs=16 end
%geom maxiter=150 end

%base "CU8_D2d_1"

* xyz 0 1
Cu       0.514508000      0.014388000     -0.049944000
Cu       5.104142000     -0.211235000      0.063908000
Cu       1.612546000      2.747351000     -0.391955000
Cu       2.693073000     -1.746349000      0.341461000
Cu       4.431513000      2.569547000     -0.203278000
Cu       2.923992000      0.476377000     -1.471884000
Cu       2.814955000      0.878853000      1.388439000
Cu       0.520388000      1.308675000     -2.560553000
*

$new_job
! PBE D3 def2-TZVP numfreq PModel NOAUTOSTART cpcm(water)
%pal nprocs=16 end
%geom maxiter=150 end

%base "CU8_D2d_2"

* xyz 0 1
Cu       0.444002000     -0.318726000     -0.187655000
Cu       5.129659000     -0.202788000      0.209898000
Cu       1.780327000      3.003775000     -0.613777000
Cu       2.759735000     -1.839753000      0.357172000
Cu       4.544261000      2.592222000     -0.194050000
Cu       2.833272000      0.527434000     -1.378008000
Cu       2.801849000      0.871808000      1.319429000
Cu       0.322013000      1.403635000     -2.396814000
*

$new_job
! PBE D3 def2-TZVP numfreq PModel NOAUTOSTART cpcm(water)
%pal nprocs=16 end 
%geom maxiter=150 end

%base "CU8_D2d_3"

* xyz 0 1 
Cu      -0.414318000      0.422211000     -0.571617000
Cu       5.174957000     -0.290649000     -0.505019000
Cu       0.694123000      3.011020000     -0.945455000
Cu       3.041027000     -1.913087000      0.571003000
Cu       4.763252000      2.516216000      0.065900000
Cu       2.450518000      0.778400000     -0.468863000
Cu       4.058056000      0.424804000      1.938591000
Cu       0.847502000      1.088693000     -2.968346000
*
