! PBE D3 def2-TZVP numfreq PModel NOAUTOSTART
%pal nprocs=16 end
%geom maxiter=150 end

%base "CU8_C2_0"

* xyz 0 1
  Cu    -1.948175   -0.000000   -1.211084
  Cu     1.380304    1.380316    1.211086
  Cu    -0.000000   -1.948213   -1.211088
  Cu    -0.000000    1.948213   -1.211088
  Cu     1.380304   -1.380315    1.211086
  Cu    -1.380304    1.380315    1.211086
  Cu     1.948175   -0.000000   -1.211084
  Cu    -1.380304   -1.380315    1.211086
*

$new_job
! PBE D3 def2-TZVP numfreq PModel NOAUTOSTART
%pal nprocs=16 end
%geom maxiter=150 end

%base "CU8_C2_1"

* xyz 0 1
  Cu    -2.008744    0.000000   -1.165254
  Cu     1.421160    1.421161    1.165251
  Cu    -0.000000   -2.008788   -1.165248
  Cu     0.000000    2.008788   -1.165248
  Cu     1.421160   -1.421161    1.165251
  Cu    -1.421160    1.421161    1.165251
  Cu     2.008744   -0.000000   -1.165254
  Cu    -1.421160   -1.421161    1.165251
*

$new_job
! PBE D3 def2-TZVP numfreq PModel NOAUTOSTART
%pal nprocs=16 end
%geom maxiter=150 end

%base "CU8_C2_2"

* xyz 0 1
Cu      -2.145814000      0.000000000     -1.105007000
Cu       1.519319000      1.519317000      1.105001000
Cu      -0.000001000     -2.145859000     -1.104996000
Cu      -0.000001000      2.145860000     -1.104996000
Cu       1.519319000     -1.519317000      1.105002000
Cu      -1.519319000      1.519317000      1.105001000
Cu       2.145813000      0.000000000     -1.105006000
Cu      -1.519319000     -1.519318000      1.105001000
*

$new_job
! PBE D3 def2-TZVP numfreq PModel NOAUTOSTART
%pal nprocs=16 end
%geom maxiter=150 end

%base "CU8_C2_3"

* xyz 0 1
Cu      -2.299163000     -0.334220000     -1.536106000
Cu       2.472011000      1.205157000      1.261746000
Cu       0.177241000     -1.681569000     -0.416435000
Cu      -0.252316000      1.047085000      0.115339000
Cu       3.002309000     -1.665923000      0.418252000
Cu      -3.011914000      1.910753000      0.365702000
Cu       2.178878000      0.321165000     -1.423173000
Cu      -2.267046000     -0.802447000      1.214678000
*
