! PBE D3 def2-TZVP numfreq PModel NOAUTOSTART cpcm(water)
%pal nprocs=16 end
%geom maxiter=150 end

%base "CU8_C2vII_0"

* xyz 0 1
  Cu     0.000000    1.843511    0.587365
  Cu    -1.459876   -0.000000    2.139021
  Cu     1.854191    0.000000   -0.594171
  Cu    -0.000000    1.460941   -2.132216
  Cu     0.000000   -1.843511    0.587365
  Cu    -1.854191    0.000000   -0.594171
  Cu    -0.000000   -1.460941   -2.132216
  Cu     1.459876    0.000000    2.139021
*

$new_job
! PBE D3 def2-TZVP numfreq PModel NOAUTOSTART cpcm(water)
%pal nprocs=16 end
%geom maxiter=150 end

%base "CU8_C2vII_1"

* xyz 0 1
  Cu     0.000001    1.413882    0.716142
  Cu    -1.993579    0.000002    2.090991
  Cu     2.049669    0.000000   -0.687016
  Cu     0.000001    1.395199   -2.120117
  Cu    -0.000001   -1.413882    0.716142
  Cu    -2.049669   -0.000000   -0.687016
  Cu    -0.000001   -1.395200   -2.120116
  Cu     1.993580   -0.000002    2.090991
*

$new_job
! PBE D3 def2-TZVP numfreq PModel NOAUTOSTART cpcm(water)
%pal nprocs=16 end
%geom maxiter=150 end

%base "CU8_C2vII_2"

* xyz 0 1
  Cu     0.000001    1.339824    1.538501
  Cu    -2.531467    0.000001    1.861487
  Cu     1.447440   -0.000002   -0.656423
  Cu     0.000001    1.351672   -2.743565
  Cu    -0.000000   -1.339824    1.538502
  Cu    -1.447440    0.000000   -0.656423
  Cu    -0.000001   -1.351673   -2.743566
  Cu     2.531468   -0.000001    1.861487
*

$new_job
! PBE D3 def2-TZVP numfreq PModel NOAUTOSTART cpcm(water)
%pal nprocs=16 end
%geom maxiter=150 end

%base "CU8_C2vII_3"

* xyz 0 1
  Cu     0.000001    1.365280    1.650625
  Cu    -2.570823    0.000001    1.973725
  Cu     1.380626   -0.000001   -0.714867
  Cu     0.000001    1.371472   -2.909483
  Cu    -0.000001   -1.365280    1.650624
  Cu    -1.380626    0.000001   -0.714867
  Cu    -0.000001   -1.371474   -2.909482
  Cu     2.570823   -0.000001    1.973725
*
