! PBE D3 def2-TZVP numfreq PModel NOAUTOSTART
%pal nprocs=16 end
%geom maxiter=150 end

%base "CU8_Td_0"

* xyz 0 1
Cu      -1.016417000      1.016417000      1.016417000
Cu      -1.016417000     -1.016417000     -1.016417000
Cu       1.016417000      1.016417000     -1.016417000
Cu       1.637669000      1.637669000      1.637669000
Cu       1.016417000     -1.016417000      1.016417000
Cu      -1.637669000      1.637669000     -1.637669000
Cu      -1.637669000     -1.637669000      1.637669000
Cu       1.637669000     -1.637669000     -1.637669000
*

$new_job
! PBE D3 def2-TZVP numfreq PModel NOAUTOSTART
%pal nprocs=16 end
%geom maxiter=150 end

%base "CU8_Td_1"

* xyz 1 2
Cu      -1.046388000      1.009814000      0.998945000
Cu      -1.034751000     -1.000005000     -1.009709000
Cu       1.034998000      0.999766000     -1.009942000
Cu       1.493668000      1.718783000      1.734190000
Cu       1.046135000     -1.010079000      0.998734000
Cu      -1.509125000      1.735544000     -1.723218000
Cu      -1.494008000     -1.718544000      1.734574000
Cu       1.509471000     -1.735279000     -1.723574000
*

$new_job
! PBE D3 def2-TZVP numfreq PModel NOAUTOSTART
%pal nprocs=16 end
%geom maxiter=150 end

%base "CU8_Td_2"

* xyz 2 1
Cu      -1.014282000      1.032880000      0.654726000
Cu      -0.956558000     -0.939892000     -1.534698000
Cu       0.956729000      0.939921000     -1.533923000
Cu       0.960637000      0.950647000      2.742998000
Cu       1.014054000     -1.033165000      0.654864000
Cu      -1.768744000      1.808765000     -1.863576000
Cu      -0.960976000     -0.950580000      2.743005000
Cu       1.769139000     -1.808578000     -1.863396000
*

$new_job
! PBE D3 def2-TZVP numfreq PModel NOAUTOSTART
%pal nprocs=16 end
%geom maxiter=150 end

%base "CU8_C2v_3"

* xyz 3 2
Cu      -0.968831000      0.984841000      0.709920000
Cu      -0.975410000     -0.957060000     -1.632300000
Cu       0.975647000      0.957125000     -1.631782000
Cu       0.975755000      0.961997000      2.906362000
Cu       0.968597000     -0.985038000      0.710053000
Cu      -1.798038000      1.837047000     -1.984413000
Cu      -0.976166000     -0.962054000      2.906358000
Cu       1.798444000     -1.836860000     -1.984198000
*
