! PBE D3 def2-TZVP opt numfreq PModel NOAUTOSTART cpcm(water)
%pal nprocs=16 end
%geom maxiter=150 end
%base "neutral"
*xyz 0 2
  C   0.05151030651785     -0.78265026121129     -0.62003621270317
  C   -1.14684861065681      1.58831487089140      0.22434165362483
  C   -1.27294345243348     -0.78544627292866     -0.19586562192394
  C   0.80452618584517      0.40225667857843     -0.62160379985104
  C   0.18574162822261      1.58406222261011     -0.19607460355947
  C   -1.88613478776132      0.40655208754698      0.23247461618572
  O   -3.18752358846117      0.40922751022149      0.64587145121896
  O   -2.07093039477904     -1.90768700980278     -0.16163033359838
  C   2.26198989399812      0.36343035607615     -1.01093645851966
  C   3.19249358672742      0.21908319312203      0.19903599263247
  N   2.83152020529196     -0.98011657330803      0.99647668616067
  H   0.52047975915281     -1.72164451804196     -0.94237754924203
  H   -1.63386514641539      2.50880820931423      0.54848632512554
  H   0.74749819228407      2.52069918632213     -0.20029658410996
  H   -3.51419522918949     -0.50816011684481      0.57089823732220
  H   -1.54297283746147     -2.68060174888050     -0.42820095694387
  H   2.54020167158847      1.28294224315929     -1.54856879407963
  H   2.44417796592426     -0.48638385213532     -1.68822612544785
  H   4.23117497900026      0.09514195917835     -0.13931016832128
  H   3.14039061387464      1.12928957292619      0.82156302532256
  H   1.88196936688811     -0.85730072553743      1.36860405882403
  H   3.45837516435725     -1.07307926353826      1.80145873594515
  Cu  2.79467885448518     -2.80596664371773      0.03172156093816
*


$new_job

! PBE D3 def2-TZVP opt numfreq PModel NOAUTOSTART cpcm(water)
%pal nprocs=16 end
%geom maxiter=150 end
%base "protonated"
*xyz 1 2
  C   1.07898732660029      1.51352516788469     -0.58761166958128
  C   0.02441664702660     -0.73254036383134      0.72520568760312
  C   1.88533508420575      0.39041301556029     -0.37237808214902
  C   -0.27623638815345      1.50797941643193     -0.14983085632504
  C   -0.80005269372999      0.38046688226518      0.52366540064205
  C   1.35041168115878     -0.74656165951909      0.28412300241693
  O   3.19218468862372      0.27884724934216     -0.72754166024440
  O   2.11149379386599     -1.83320793665416      0.51211013937218
  C   -2.23818786416363      0.36306062250564      0.98599372254936
  C   -3.12907562219875     -0.62480765918067      0.22910947734060
  N   -3.16305392449435     -0.30782378018467     -1.24655391551978
  H   -2.14037839171934     -0.29170885643675     -1.64776834425088
  H   -3.72638223294196     -0.98207501665580     -1.77839966286846
  H   -3.54079600112255      0.63427971428122     -1.41622250425328
  H   1.51064766013191      2.42476946042783     -1.00864288970979
  H   -0.33922207507672     -1.61694814707017      1.25260793443716
  H   -0.85294936409711      2.43416201964787     -0.19688403026259
  H   3.52315857249401      1.10234996111497     -1.12857353964233
  H   3.01300407869935     -1.66723480904354      0.16927210545052
  H   -2.66828483005801      1.37514665266830      0.92310546869530
  H   -2.29195654782142      0.07345714778403      2.04731037357100
  H   -2.75256277259489     -1.65252973371989      0.31336075976874
  H   -4.16035827429662     -0.59798305176550      0.60402658350572
  Cu  -0.39014782133756      0.76373229214748     -2.17810362154583
*


$new_job

! PBE D3 def2-TZVP opt numfreq PModel NOAUTOSTART cpcm(water)
%pal nprocs=16 end
%geom maxiter=150 end
%base "deprotonated"
*xyz -1 2
  O   2.32400838134809     -1.80485572590562     -0.17050849630255
  O   3.18367361810849      0.53112489155332     -0.60411285323431
  N   -2.95607888936990      0.35894358092313     -1.26126475971509
  C   -2.18792496380110     -0.13607835290324      1.07582417070768
  C   -0.75060446030147      0.07917758678959      0.68326964766942
  C   -3.06243502366001     -0.57571742862758     -0.11036929610486
  C   0.11056924011589     -1.03082358581373      0.47634720429087
  C   -0.24972611069098      1.36384774114497      0.43665708036757
  C   1.40722724229463     -0.82397439262430      0.04661531313833
  C   1.06700364582456      1.58342841628268     -0.00295289791322
  C   1.95319690446491      0.49913951871084     -0.21668203283720
  H   -2.60207405588884      0.80030537373093      1.49229647188496
  H   -2.28153756345723     -0.90270323502259      1.86747511823861
  H   -4.12525266333676     -0.65274476452587      0.16882488402355
  H   -2.74096807706201     -1.56375089112637     -0.46963966961468
  H   -0.24308458261420     -2.05055887230801      0.66324920332897
  H   -0.90471862172543      2.22599080950787      0.61165517369394
  H   1.43308148973821      2.59913947819014     -0.17467611746020
  H   -1.95057801298729      0.45192330398739     -1.47456003905072
  H   -3.23541339691295      1.29659879064346     -0.94728789461043
  H   3.09427407732060     -1.19674069503384     -0.45656574831236
  Cu  -4.08984874840718     -0.05444064157314     -2.88607444418827
*


$new_job

! PBE D3 def2-TZVP opt numfreq PModel NOAUTOSTART cpcm(water)
%pal nprocs=16 end
%geom maxiter=150 end
%base "zwitterione"
*xyz 0 2
  O   2.24594608118478     -2.68693371519580      0.31559973917755
  C   1.71282334429423     -1.45533993171194      0.24993121241835
  C   0.54480399702392     -1.16516759054979     -0.44832275711968
  C   0.02787613064923      0.13977319879306     -0.52432635404772
  C   -1.25642376261149      0.41744036440469     -1.23990144043379
  C   -2.49333352661513      0.28011505454580     -0.30116690216440
  N   -3.78105266454003      0.56117448794867     -0.91182972321232
  H   -0.35268009356975      0.20171850958248      3.50159934896793
  H   -3.82462587711327      1.52017603095100     -1.26088335666462
  H   -3.95844601621450     -0.05837894176325     -1.70449322746277
  C   0.70874058224933      1.18745051074278      0.16294267743980
  C   1.86860115505197      0.92421133972889      0.91649825520956
  C   2.48913116825182     -0.40170001469211      0.94193505332326
  O   3.58468027735763     -0.63384082401522      1.47878837413930
  H   1.67272187847602     -3.31094140210122     -0.16859706476011
  H   0.01551760201558     -1.97445914534994     -0.96319373614290
  H   -1.24640350601086      1.43912589072602     -1.65191634030200
  H   -1.38123478437598     -0.27942859022807     -2.08370247179646
  H   -2.51185932559664     -0.74154779523156      0.10827151293533
  H   -2.35726988905262      0.95129019111289      0.56223314603312
  H   0.36205330561974      2.21624734239731      0.03524032840549
  H   2.45538058606567      1.73400619828725      1.35339661332565
  Cu  0.16772253046042      0.59228716761808      2.13239786973140
*
