! PBE D3 def2-TZVP opt PModel
%pal nprocs=16 end
%geom maxiter=200 end
%base "1_neutral"
*xyz 0 2
  C        -1.148884057683     -3.185082352456     -0.109639198326
  C        -2.178798057683     -0.584776352456      0.110919801674
  C        -2.478800057683     -2.975196352456      0.227625801674
  C        -0.310376057683     -2.085350352456     -0.342191198326
  C        -0.837185057683     -0.786685352456     -0.229608198326
  C        -2.993183057683     -1.686660352456      0.338220801674
  O        -4.312243057683     -1.554704352456      0.674082801674
  O        -3.286685057683     -4.053159352456      0.452312801674
  C         1.141859942317     -2.296611352456     -0.702731198326
  C         2.007849942317     -2.790748352456      0.466325801674
  N         2.102854942317     -1.830762352456      1.567683801674
  H        -0.774304057683     -4.201887352456     -0.189659198326
  H        -2.560902057683      0.427605647544      0.190899801674
  H        -0.201585057683      0.078433647544     -0.407933198326
  H        -4.521115057683     -0.605484352456      0.708150801674
  H        -4.156885057683     -3.663814352456      0.669964801674
  H         1.565480942317     -1.368648352456     -1.108170198326
  H         1.191761942317     -3.027142352456     -1.520457198326
  H         1.622742942317     -3.738485352456      0.858623801674
  H         3.020319942317     -2.987773352456      0.097030801674
  H         1.169089942317     -1.687629352456      1.956463801674
  H         2.392695942317     -0.923641352456      1.206285801674
  Cu        2.708579119072     -2.255941222281      3.715151708375
  Cu        3.613641130287     -3.342816838322      2.369025337728
*

$new_job
%pal nprocs=16 end
%geom maxiter=200 end
%base "2_neutral"
! PBE D3 def2-TZVP opt PModel NOAUTOSTART
*xyz 0 2
  C        -0.046652000000     -0.911071000000     -0.532758000000
  C        -1.135871000000      1.590984000000      0.120364000000
  C        -1.381293000000     -0.790692000000     -0.171165000000
  C         0.766734000000      0.230357000000     -0.570469000000
  C         0.210423000000      1.479188000000     -0.241853000000
  C        -1.925139000000      0.448711000000      0.153453000000
  O        -3.247017000000      0.492122000000      0.501091000000
  O        -2.163985000000     -1.909307000000     -0.134001000000
  C         2.225367000000      0.115784000000     -0.948125000000
  C         3.187017000000      0.283614000000      0.238177000000
  N         3.056643000000     -0.765978000000      1.249695000000
  H         0.350146000000     -1.891510000000     -0.780768000000
  H        -1.540199000000      2.566466000000      0.369856000000
  H         0.828192000000      2.374941000000     -0.266569000000
  H        -3.475863000000      1.416560000000      0.698663000000
  H        -3.044027000000     -1.580947000000      0.138402000000
  H         2.448055000000      0.881624000000     -1.702239000000
  H         2.410633000000     -0.847709000000     -1.440388000000
  H         4.216463000000      0.270880000000     -0.136514000000
  H         3.036819000000      1.255781000000      0.720669000000
  H         3.152908000000     -1.679303000000      0.806926000000
  H         2.104875000000     -0.748710000000      1.621641000000
  Cu        3.213879792672     -0.419030610194      2.693782090610
  Cu        4.555962670908     -0.207594862842      2.089221726670
*

$new_job
%pal nprocs=16 end
%geom maxiter=200 end
%base "3_neutral"
! PBE D3 def2-TZVP opt PModel NOAUTOSTART
*xyz 0 2
  C        -0.096290000000     -0.980680000000     -0.380034000000
  C        -1.093748000000      1.628719000000     -0.119334000000
  C        -1.426063000000     -0.761674000000     -0.034967000000
  C         0.753785000000      0.116531000000     -0.597470000000
  C         0.242883000000      1.419760000000     -0.465428000000
  C        -1.916883000000      0.534394000000      0.093448000000
  O        -3.223537000000      0.738544000000      0.432986000000
  O        -2.294151000000     -1.794580000000      0.190192000000
  C         2.204965000000     -0.098569000000     -0.963399000000
  C         3.061932000000     -0.647382000000      0.187695000000
  N         3.161017000000      0.263425000000      1.328196000000
  H         0.289586000000     -1.990431000000     -0.482505000000
  H        -1.488408000000      2.634977000000     -0.017445000000
  H         0.883530000000      2.283311000000     -0.631270000000
  H        -3.593589000000     -0.161702000000      0.527334000000
  H        -1.807899000000     -2.628635000000      0.073169000000
  H         2.641810000000      0.838598000000     -1.331885000000
  H         2.246887000000     -0.798253000000     -1.808050000000
  H         2.665647000000     -1.606474000000      0.539090000000
  H         4.073806000000     -0.840366000000     -0.185405000000
  H         2.224215000000      0.433815000000      1.699234000000
  H         3.495319000000      1.172886000000      1.011874000000
  Cu        3.531029983796      0.835339424679      2.666658553921
  Cu        3.728820629839     -0.542871322987      2.582252663626
*

$new_job
%pal nprocs=16 end
%geom maxiter=200 end
%base "4_neutral"
! PBE D3 def2-TZVP opt PModel NOAUTOSTART
*xyz 0 2
  C        -0.097842000000     -0.920923000000     -0.507016000000
  C        -1.088360000000      1.633502000000      0.099122000000
  C        -1.428703000000     -0.744990000000     -0.141290000000
  C         0.756518000000      0.192278000000     -0.571721000000
  C         0.248624000000      1.467925000000     -0.268154000000
  C        -1.915788000000      0.523640000000      0.159826000000
  O        -3.223202000000      0.684992000000      0.518892000000
  O        -2.301868000000     -1.795143000000     -0.062972000000
  C         2.207753000000      0.023049000000     -0.960862000000
  C         3.195356000000      0.258187000000      0.192596000000
  N         3.050100000000     -0.699765000000      1.289265000000
  H         0.284043000000     -1.909754000000     -0.741520000000
  H        -1.479477000000      2.618504000000      0.334658000000
  H         0.893223000000      2.343263000000     -0.316124000000
  H        -3.596815000000     -0.218147000000      0.490285000000
  H        -1.826082000000     -2.604210000000     -0.317039000000
  H         2.430202000000      0.726552000000     -1.773489000000
  H         2.368378000000     -0.977823000000     -1.382028000000
  H         4.216832000000      0.180995000000     -0.195948000000
  H         3.085180000000      1.271284000000      0.594843000000
  H         3.090981000000     -1.649669000000      0.924310000000
  H         2.118048000000     -0.597443000000      1.694836000000
  Cu        3.048053033381     -1.630744681892      2.557849504567
  Cu        4.154851572739     -0.760252086575      2.207068309497
*

$new_job
%pal nprocs=16 end
%geom maxiter=200 end
%base "5_neutral"
! PBE D3 def2-TZVP opt PModel NOAUTOSTART
*xyz 0 2
  C        -0.049461000000     -0.828565000000     -0.561212000000
  C        -1.172466000000      1.627940000000      0.197374000000
  C        -1.385624000000     -0.747650000000     -0.184629000000
  C         0.742258000000      0.331521000000     -0.562141000000
  C         0.170509000000      1.557196000000     -0.178807000000
  C        -1.939028000000      0.473028000000      0.191172000000
  O        -3.251769000000      0.541284000000      0.560998000000
  O        -2.197998000000     -1.848023000000     -0.165013000000
  C         2.201740000000      0.257709000000     -0.950510000000
  C         3.155311000000      0.222943000000      0.252043000000
  N         3.032140000000     -1.008935000000      1.033705000000
  H         0.391890000000     -1.778825000000     -0.848292000000
  H        -1.615604000000      2.574160000000      0.491949000000
  H         0.769067000000      2.465545000000     -0.172506000000
  H        -3.575698000000     -0.377350000000      0.474120000000
  H        -1.673244000000     -2.611967000000     -0.460856000000
  H         2.440663000000      1.130512000000     -1.571924000000
  H         2.374118000000     -0.616184000000     -1.592177000000
  H         4.185601000000      0.294398000000     -0.113247000000
  H         2.980476000000      1.084018000000      0.907054000000
  H         2.091859000000     -1.052374000000      1.430225000000
  H         3.664593000000     -0.960214000000      1.832092000000
  Cu        2.990186724723     -1.592133917065      2.195580252306
  Cu        3.116453609002     -2.654368333042      0.943063952962
*
