! PBE D3 def2-TZVP opt PModel cpcm(water)
%pal nprocs=16 end
%geom maxiter=150 end
%base "1_M0001"
*xyz 3 2
  C   -1.17929798449267     -1.61482495983206      0.20254228101571
  C   0.08888092992322      0.73099190789247     -0.61840792177553
  C   -1.86436884278644     -0.40390710508644      0.26048323094036
  C   0.14163577869782     -1.66026146749245     -0.25430933468566
  C   0.78651712449208     -0.49306796631463     -0.67534124992419
  C   -1.22889150724005      0.78594775367967     -0.15736671331767
  O   -3.15133455158745     -0.24193529845304      0.68709217582647
  O   -1.87958920228393      1.97185394286540     -0.12856410613211
  C   2.24216107111636     -0.50621456093227     -1.07645032737118
  C   3.14433664366115     -0.36096915109023      0.15575215944709
  N   2.70622596405331      0.85815919209007      0.93819040815985
  H   1.65704557004106      0.88996599800555      0.91184266067377
  H   3.01461875866148      0.86928236949325      1.92214562225924
  H   3.03328271657113      1.73863522705479      0.51374902477748
  H   -1.68120388379748     -2.53445741834011      0.51215334180721
  H   0.52380188945717      1.65253503728907     -1.01620577439605
  H   0.65810073113091     -2.62049354154733     -0.30033785942774
  H   -3.56040151932714     -1.10265929247479      0.88517474511910
  H   -2.79613558173661      1.81051143643333      0.17360270196720
  H   2.45932522690841      0.29935108299958     -1.79566441935570
  H   2.51293393535689     -1.45107927166710     -1.56836918375843
  H   3.02465795924061     -1.21658034511412      0.83195296545941
  H   4.20595600239409     -0.24022767989297     -0.09310197334668
  Cu2  2.03668510454605      3.48060842443436      2.98044266203807
*

$new_job

! PBE D3 def2-TZVP opt PModel cpcm(water)
%pal nprocs=16 end
%geom maxiter=150 end
%base "2_M0002"
*xyz 3 2
  C   1.07898732660029      1.51352516788469     -0.58761166958128
  C   0.02441664702660     -0.73254036383134      0.72520568760312
  C   1.88533508420575      0.39041301556029     -0.37237808214902
  C   -0.27623638815345      1.50797941643193     -0.14983085632504
  C   -0.80005269372999      0.38046688226518      0.52366540064205
  C   1.35041168115878     -0.74656165951909      0.28412300241693
  O   3.19218468862372      0.27884724934216     -0.72754166024440
  O   2.11149379386599     -1.83320793665416      0.51211013937218
  C   -2.23818786416363      0.36306062250564      0.98599372254936
  C   -3.12907562219875     -0.62480765918067      0.22910947734060
  N   -3.16305392449435     -0.30782378018467     -1.24655391551978
  H   -2.14037839171934     -0.29170885643675     -1.64776834425088
  H   -3.72638223294196     -0.98207501665580     -1.77839966286846
  H   -3.54079600112255      0.63427971428122     -1.41622250425328
  H   1.51064766013191      2.42476946042783     -1.00864288970979
  H   -0.33922207507672     -1.61694814707017      1.25260793443716
  H   -0.85294936409711      2.43416201964787     -0.19688403026259
  H   3.52315857249401      1.10234996111497     -1.12857353964233
  H   3.01300407869935     -1.66723480904354      0.16927210545052
  H   -2.66828483005801      1.37514665266830      0.92310546869530
  H   -2.29195654782142      0.07345714778403      2.04731037357100
  H   -2.75256277259489     -1.65252973371989      0.31336075976874
  H   -4.16035827429662     -0.59798305176550      0.60402658350572
  Cu2  -0.39014782133756      0.76373229214748     -2.17810362154583
*

$new_job

! PBE D3 def2-TZVP opt PModel cpcm(water)
%pal nprocs=16 end
%geom maxiter=150 end
%base "3_M0003"
*xyz 3 2
  C   -0.96860955205663     -1.53018949438176     -0.14612955984887
  C   -0.16136959138550      1.04783682253190      0.59917875867852
  C   -1.90419557681538     -0.49834063762739     -0.11893243198444
  C   0.36252551732932     -1.27767793847029      0.19980210479282
  C   0.78520364709931      0.00902586744638      0.57301642061076
  C   -1.49018578103652      0.80003433517291      0.26883682655432
  O   -3.19177284236577     -0.74621436913726     -0.44157643025215
  O   -2.48712395304465      1.73161333807385      0.28070209337349
  C   2.24123889641689      0.28123889510507      0.85783759485427
  C   2.98273558114593      0.73608517698783     -0.40470070621104
  N   2.73535115818872     -0.27198323126724     -1.49607297665154
  H   1.71792109647751     -0.50866010250195     -1.48620059459955
  H   3.02151651098878      0.05737727610817     -2.42661273309262
  H   3.25090296245657     -1.17787912826501     -1.27954301446651
  H   -1.30476478998459     -2.53246172967450     -0.41206080563644
  H   0.13682102618792      2.05566721795297      0.90295219690997
  H   1.06964057653082     -2.11284000030031      0.23939872175991
  H   -3.70685960668962      0.07719561163720     -0.32623726267863
  H   -2.16431585369804      2.58258036661674      0.62537997821223
  H   2.72733294434016     -0.62694627437941      1.25233003993585
  H   2.36785320124160      1.06628822866075      1.61697213006875
  H   2.60136325006234      1.69881031513061     -0.76891306635728
  H   4.06809561931305      0.80749180777026     -0.25751339126529
  Cu2  4.10464748929773     -3.05164529018953     -0.39913389870649
*

$new_job

! PBE D3 def2-TZVP opt PModel cpcm(water)
%pal nprocs=16 end
%geom maxiter=150 end
%base "4_M0004"
*xyz 3 2
  C   -0.90644336795382     -1.55826982115244     -0.11746642150056
  C   -0.17641633802013      1.04177002600355      0.60457861702723
  C   -1.84235752306287     -0.52964631183181     -0.22136690220002
  C   0.38192301924806     -1.29566890420111      0.35498628908861
  C   0.76424455368813      0.00409447131153      0.72481585081885
  C   -1.46849080897340      0.78099251157214      0.15392241752549
  O   -3.08851465375194     -0.79472323799835     -0.67149202981876
  O   -2.45494214961118      1.71681897887853      0.02064136212707
  C   2.17101314779829      0.30389342071871      1.19861189644425
  C   3.22581069727440     -0.19935643079171      0.20834723554677
  N   2.79038175413530      0.16441716589555     -1.19373953959376
  H   2.83006492952911      1.17896912094835     -1.37567148303243
  H   3.33815280212392     -0.29455031737339     -1.93728793461661
  H   1.78944899407791     -0.12190267146026     -1.27915191648324
  H   -1.21260820527238     -2.56918763265972     -0.38748791128299
  H   0.09496092809657      2.06137152458501      0.89395087847885
  H   1.07590092750730     -2.13126526444347      0.47427386352237
  H   -3.61410477007648      0.02914608851346     -0.63499252529339
  H   -2.17979551470721      2.56823803574455      0.40297996390201
  H   2.38565204618196     -0.17178930511421      2.16858936169162
  H   2.29072233780041      1.38707433650452      1.35245687106485
  H   4.21962851822736      0.23102511770095      0.38014844574359
  H   3.30668970240891     -1.29308648801931      0.22024731776441
  Cu2  2.53598888433174      1.11991465666894     -4.45584677192424
*

$new_job

! PBE D3 def2-TZVP opt PModel cpcm(water)
%pal nprocs=16 end
%geom maxiter=150 end
%base "5_M0005"
*xyz 3 2
  C   -1.47398603641892     -1.58311643181666     -0.11570858835115
  C   -0.25498121047357      0.87600363977828      0.41386286590935
  C   -2.22802393405384     -0.41358099370752     -0.14331542345251
  C   -0.10754967901274     -1.52842354703456      0.17338807118345
  C   0.50620939149711     -0.30126495890563      0.44245198248100
  C   -1.61631251846735      0.83232736221491      0.12462288526220
  O   -3.56721845915993     -0.34574701139207     -0.40823296343649
  O   -2.33949996034192      1.97802982238581      0.11125478570437
  C   1.99126768541439     -0.22678504359321      0.71086374494809
  C   2.72259363673045      0.08694924434072     -0.58893276499637
  N   4.22645584900810      0.20773337926448     -0.35954580656181
  H   4.62319967197022     -0.65991938380476      0.03286695695986
  H   4.76100358334748      0.41784641248919     -1.21856813569072
  H   4.45709980845540      0.95833084813092      0.31265778230647
  H   -1.95562672183592     -2.54366117775842     -0.31213291742414
  H   0.18860431321045      1.84858980440717      0.63866841021363
  H   0.46982215464720     -2.45421490217846      0.20566448755973
  H   -3.93302652834991     -1.23617542598689     -0.55007871327819
  H   -3.26930859381740      1.74841963786801     -0.08583116337077
  H   2.34935952038013     -1.18514044897256      1.12102881916245
  H   2.20605932963062      0.55597206678392      1.45781013170265
  H   2.58274635473132     -0.70344686608838     -1.33732843289968
  H   2.39604462200421      1.04230049089297     -1.01882196734209
  Cu2  7.47984599590442      0.97799505368274      0.03750891041068
*
