# preopt in PBE-D3

! B3LYP D3 TightSCF def2-TZVP slowconv PModel cpcm(water) opt numfreq
%pal nprocs=16 end
%geom maxiter=150 end
%elprop Polar 1 end
%base "neutral"
*xyz 0 2
  C   -0.09449280152340     -1.03005466313460     -0.46780933162394
  C   -1.01230795117861      1.57007956214631     -0.03445958595430
  C   -1.41368639822857     -0.81944050926770     -0.07444339750554
  C   0.78652378031256      0.04801297479330     -0.65346657397357
  C   0.31222299994057      1.34685257103324     -0.43123949588547
  C   -1.87714074336859      0.49396989307550      0.14614404347955
  O   -3.19222282966068      0.60220901019905      0.52903188074299
  O   -2.25276453527664     -1.88922018653150      0.09178338270851
  C   2.22592882833317     -0.20587474048156     -1.02648982868116
  C   3.08683778844368     -0.62383148358162      0.17584797432184
  N   3.16399143884405      0.40986813645389      1.23613731432329
  H   0.24218752234323     -2.05644317606776     -0.63335992228484
  H   -1.38003736243033      2.58543569445072      0.13419640210340
  H   0.98017366743041      2.19824937911036     -0.57625894337431
  H   -3.41930874992092      1.54182057158321      0.65737626065037
  H   -3.12906246892363     -1.54420542272517      0.35607142592006
  H   2.65970250462557      0.70012961872239     -1.47875694205807
  H   2.28835381486436     -1.00903716433528     -1.77815302613321
  H   2.68012220289160     -1.53855543534559      0.63015095781290
  H   4.11146883090365     -0.84406263230820     -0.15361314242780
  H   2.21336436737690      0.66371401893319      1.53195731529581
  H   3.57044941372289      1.26839026655071      0.84672793277750
  Cu  4.21710162347872     -0.07958981027287      2.88988804676597
*


$new_job

! B3LYP D3 TightSCF def2-TZVP slowconv PModel cpcm(water) opt numfreq
%pal nprocs=16 end
%geom maxiter=150 end
%elprop Polar 1 end
%base "protonated"
*xyz 1 2
  C   -0.89146143443453     -1.75147415391772     -0.06119025849551
  C   -0.15660168143529      0.91238207647945      0.41900401502564
  C   -1.84446308599058     -0.73316751630245     -0.20020877282285
  C   0.43663498030243     -1.43039945528332      0.33440677285600
  C   0.80590059075005     -0.09348906283585      0.58854610987750
  C   -1.46105521490457      0.60696161541457      0.02924696100217
  O   -3.12210378450262     -1.04779161483567     -0.54355300533489
  O   -2.45227882020233      1.53175715184224     -0.13253544824092
  C   2.21731665023610      0.25982748392604      0.98701676846419
  C   3.05979129458447      0.82446061108454     -0.15710539042611
  N   3.32128456945956     -0.20721577218295     -1.21231712844560
  H   2.41846472186336     -0.59014471398271     -1.62212574208336
  H   3.86464609541644      0.18310453733231     -1.99360393879537
  H   3.84699462638914     -1.00829310166041     -0.83601285545379
  H   -1.21054999126764     -2.79132033876070     -0.15267738973157
  H   0.10518929318033      1.95861187814166      0.60181473939512
  H   1.13833621567969     -2.23765523734273      0.55410484854306
  H   -3.63653388699073     -0.21737484069739     -0.60736509353236
  H   -2.11058657832725      2.42543453579231      0.05985600916873
  H   2.72356995856050     -0.62150805936455      1.41008992305617
  H   2.20383739938586      1.03123148357444      1.77141113585703
  H   2.55397866397261      1.66180236620260     -0.65402605290351
  H   4.03761853497922      1.16234625768323      0.20649156769030
  Cu  0.39673274129570     -1.49774729830697     -1.87443509267007
*


$new_job

! B3LYP D3 TightSCF def2-TZVP slowconv PModel cpcm(water) opt numfreq
%pal nprocs=16 end
%geom maxiter=150 end
%elprop Polar 1 end
%base "deprotonated"
*xyz -1 2
  O   2.37178496482699     -1.82494242773317     -0.04059242540945
  O   3.23825827769790      0.52824543968038     -0.55754968328594
  N   -3.05666513882044      0.34840630072499     -1.28730227596273
  C   -2.18407512238629     -0.14621097240053      1.02105886948088
  C   -0.73956063645046      0.07526654854472      0.64578567626596
  C   -3.04106979592171     -0.62069818180745     -0.16296579233937
  C   0.13972936988672     -1.02723545553916      0.50992741562831
  C   -0.24644725841345      1.35318300456249      0.35816205709979
  C   1.44795617334272     -0.82176907411514      0.10783939307707
  C   1.08403267643880      1.56503121004996     -0.05065101583071
  C   1.98345532244849      0.48422360971015     -0.19358221761841
  H   -2.61583139468792      0.78781018930872      1.41762601408394
  H   -2.26898682743316     -0.90425234109012      1.81825523752982
  H   -4.08098225300452     -0.78971797269425      0.15043220900906
  H   -2.65043330388322     -1.57316280500005     -0.54955548708262
  H   -0.21137197566986     -2.04140806202143      0.72544495910918
  H   -0.91548841149425      2.21277593200635      0.46448771192595
  H   1.43933924431165      2.57834476159626     -0.26038598867151
  H   -2.08385184093947      0.59826439703421     -1.51118444926488
  H   -3.49554712365938      1.22212562513323     -0.97387642549043
  H   3.15898530535290     -1.26074312535076     -0.33047071485185
  Cu  -3.97730747154202     -0.23947949759939     -2.98070222440204
*

$new_job

! B3LYP D3 TightSCF def2-TZVP slowconv PModel cpcm(water) opt numfreq
%pal nprocs=16 end
%geom maxiter=150 end
%elprop Polar 1 end
%base "2x_deprotonated"
*xyz -2 2
  O   -2.26646450248551     -2.02195613059449      0.28132970378406
  O   -3.31039352139306      0.44706312876617     -0.63659608559602
  N   2.93718624468636      0.15050425352663     -1.27997263462202
  C   2.13050177444221      0.06048418588955      1.09115568875686
  C   0.68257426598194      0.18301291462545      0.67846656554859
  C   2.99733061269840     -0.59530716619860      0.00480569584934
  C   -0.16941168552077     -0.94881198536142      0.68913270940912
  C   0.16282124702658      1.38798184661270      0.19958716293197
  C   -1.52392456141623     -0.95003460792325      0.25335341582562
  C   -1.17956419102378      1.45400992396635     -0.23820755762956
  C   -2.07216708423705      0.34809269199025     -0.23685369722405
  H   2.54392294056451      1.06010902654118      1.31169907487663
  H   2.23511760248015     -0.54168534307558      2.01135925752244
  H   2.64237201194308     -1.61817909818435     -0.18770133879968
  H   4.05149499191870     -0.65758595883818      0.31171782982558
  H   0.22839846124795     -1.90605235187091      1.05541327066862
  H   0.79390155101276      2.28340362051808      0.17673571431226
  H   -1.58019481301016      2.40996709690110     -0.60017344149798
  H   3.37639488856093      1.06981318720189     -1.15065544494710
  H   1.94337021405037      0.35779612204343     -1.46376621128886
  Cu  3.77635439347262     -0.72528621253600     -2.88306711470582
*

$new_job

! B3LYP D3 TightSCF def2-TZVP slowconv PModel cpcm(water) opt numfreq
%pal nprocs=16 end
%geom maxiter=150 end
%elprop Polar 1 end
%base "zwitterione"
*xyz 0 2
  O   2.89833523598153     -2.01573408482772     -0.29782744261172
  C   2.09879576339402     -0.90257946743785     -0.14713525577849
  C   0.72636572954856     -0.91475775614971     -0.50320840803429
  C   -0.05340396783122      0.26970073470039     -0.52720781944714
  C   -1.51345975735983      0.22808514511151     -0.90210832681841
  C   -2.47260971517698      0.30263277733378      0.28739300144376
  N   -2.32852034939881     -0.89023479206947      1.18263636519714
  H   -2.96863998023343     -0.84153952461100      1.98622646081317
  H   -2.52188369935009     -1.76729914125551      0.67950758201725
  H   -1.33744443859765     -0.95564683047181      1.56876399962966
  C   0.57537380664205      1.45920840404636     -0.12816120849804
  C   1.91379544628030      1.48093623754897      0.27082007117818
  C   2.78326657756401      0.33288154755583      0.22992535316395
  O   4.03709999502104      0.37280305937863      0.46890524897551
  H   2.33700310798660     -2.76489283867956     -0.57425328091856
  H   0.28777049277328     -1.85334254669472     -0.85879546384313
  H   -1.76333159604493      1.08360336803845     -1.54887466815197
  H   -1.73294952201465     -0.68267129378332     -1.48228455737997
  H   -2.26938161251711      1.18467036091370      0.90777304096188
  H   -3.51793820619670      0.32989316626777     -0.04468526762456
  H   -0.00061613109771      2.38903627014453     -0.11772689853333
  H   2.37648612220441      2.42826989031784      0.56072264179227
  Cu  0.89148812642329     -0.85997812737709      1.72000569646683
*
