! PBE D3 def2-TZVP opt numfreq PModel NOAUTOSTART cpcm(water)
%pal nprocs=16 end
%geom maxiter=150 end
%base "deprotonated"
*xyz -1 1
  O   2.38664934776350     -1.82908237970919     -0.02736246502156
  O   3.27381811761539      0.52694801315679     -0.50104716237702
  N   -3.09739678654441      0.38914154943036     -1.33562441656540
  C   -2.17962520543252     -0.14435290383849      0.98112280369746
  C   -0.72952825486907      0.07748361690109      0.63220784740398
  C   -3.03523259076780     -0.57695637280214     -0.22835149331452
  C   0.14923850720903     -1.02580844196276      0.49629392984480
  C   -0.22372505439718      1.35556561781346      0.36919304275567
  C   1.46510313275629     -0.82205637130933      0.11787967903702
  C   1.11458569791968      1.56645495605175     -0.01549767887374
  C   2.01186691285937      0.48408961771762     -0.15809046442357
  H   -2.60905158672440      0.78355667947821      1.39587560503543
  H   -2.27351236925255     -0.91998202145795      1.76167244960407
  H   -4.06553569623025     -0.77978522669065      0.10640501215840
  H   -2.63610172952538     -1.52522860724966     -0.62541552898701
  H   -0.20833970621655     -2.04151724959145      0.69420687370926
  H   -0.88995353388385      2.21749987483451      0.47402490867983
  H   1.47784653256856      2.58098727687918     -0.20590598985807
  H   -2.13606082860391      0.64614248204889     -1.58665548686895
  H   -3.51405502822472      1.25817601752003     -0.98583319160425
  H   3.18124912198076     -1.26564412722027     -0.29669327403182
*
