! PBE D3 def2-TZVP opt 

%base "M0001"
%pal nprocs=8 end
%geom maxiter=75 end
* xyz 0 1
O        2.915711     -2.145336     -0.071780
C        2.182078     -1.035316     -0.216318
C        0.729710     -1.105456     -0.496832
C       -0.009761      0.014983     -0.639845
C       -1.496476     -0.059044     -0.905511
C       -2.271812     -0.345994      0.408601
N       -2.054248      0.710545      1.426609
H       -2.600459      0.540476      2.259362
H       -1.091500      0.765704      1.725095
H       -2.317673      1.622921      1.083567
C        0.660670      1.326672     -0.513475
C        1.982081      1.393560     -0.260573
C        2.770665      0.160014     -0.105508
O        4.241447      0.249090      0.178348
H        2.428299     -2.956218     -0.163779
H        0.249945     -2.080013     -0.586611
H       -1.854382      0.888174     -1.339070
H       -1.703849     -0.854101     -1.640670
H       -3.348370     -0.416589      0.171998
H       -1.952718     -1.323610      0.810152
H        0.082070      2.246096     -0.608310
H        2.484339      2.350932     -0.223869
*

$new_job

%base "M0002"
%pal nprocs=8 end
%geom maxiter=75 end
* xyz 0 1
O        3.036782     -1.702535     -0.306303
C        2.228842     -0.635493     -0.300185
C        0.786021     -0.762563     -0.609398
C       -0.028158      0.314784     -0.598195
C       -1.507463      0.201663     -0.890934
C       -2.321226      0.162624      0.430607
N       -1.965618     -1.005658      1.272309
H       -2.537300     -1.050369      2.104141
H       -2.095244     -1.877224      0.779303
H       -1.007543     -0.975567      1.588679
C        0.550259      1.635478     -0.274342
C        1.862765      1.755194      0.003516
C        2.733302      0.568036     -0.009269
O        4.193050      0.713740      0.306352
H        2.607585     -2.522971     -0.521281
H        0.379714     -1.746234     -0.843910
H       -1.820982      1.072411     -1.489556
H       -1.729404     -0.699520     -1.484919
H       -2.142203      1.096347      0.991942
H       -3.396004      0.123931      0.178914
H       -0.093763      2.515081     -0.246660
H        2.297513      2.729453      0.183049
*

$new_job

%base "M0003"
%pal nprocs=8 end
%geom maxiter=75 end
* xyz 0 1
O        3.266227     -1.923031      0.058566
C        2.503268     -0.827159     -0.032295
C        1.054011     -0.921893     -0.322149
C        0.288854      0.183707     -0.415727
C       -1.194899      0.091014     -0.693917
C       -1.967532     -0.104657      0.637082
N       -3.430612     -0.190154      0.411878
H       -3.933738     -0.317680      1.278720
H       -3.794872      0.647699     -0.018286
H       -3.674344     -0.966536     -0.186082
C        0.922929      1.504249     -0.218418
C        2.238153      1.594719      0.046769
C        3.059206      0.376299      0.141631
O        4.526340      0.490008      0.435425
H        2.801305     -2.741018     -0.076727
H        0.601652     -1.903620     -0.462029
H       -1.542037      1.011985     -1.188480
H       -1.407397     -0.748654     -1.375108
H       -1.610079     -1.028101      1.125669
H       -1.740961      0.742621      1.308043
H        0.317907      2.410130     -0.268514
H        2.717459      2.564001      0.129175
*

$new_job

%base "M0004"
%pal nprocs=8 end
%geom maxiter=75 end
* xyz 0 1
O        2.804506     -2.218687     -0.081543
C        2.120519     -1.074250     -0.222137
C        0.674742     -1.137289     -0.501641
C       -0.071467     -0.023011     -0.650644
C       -1.557129     -0.106674     -0.916292
C       -2.331361     -0.388052      0.399610
N       -2.120642      0.677585      1.409538
H       -2.666218      0.510628      2.243336
H       -1.158387      0.740868      1.707997
H       -2.389395      1.585677      1.059335
C        0.597476      1.288888     -0.530592
C        1.919106      1.353869     -0.278134
C        2.714693      0.124452     -0.115613
O        4.183718      0.254884      0.167795
H        3.734157     -2.132929      0.097952
H        0.223876     -2.125970     -0.581469
H       -1.919042      0.835501     -1.357442
H       -1.758928     -0.908993     -1.645073
H       -3.407345     -0.466972      0.163048
H       -2.006376     -1.360644      0.808617
H        0.018401      2.207518     -0.630200
H        2.419023      2.312562     -0.244965
*

$new_job

%base "M0005"
%pal nprocs=8 end
%geom maxiter=75 end
* xyz 0 1
O        2.618028     -1.924163      1.148274
C        1.892695     -0.804126      1.018802
C        0.454162     -0.917308      0.718116
C       -0.312430      0.161677      0.583028
C       -1.792763      0.047744      0.298897
C       -2.076905      0.288552     -1.208205
N       -1.400607     -0.710281     -2.071197
H       -1.633481     -0.576239     -3.045140
H       -0.394596     -0.654169     -2.010265
H       -1.666778     -1.654558     -1.832485
C        0.304564      1.494500      0.736602
C        1.600021      1.615279      1.003317
C        2.439451      0.414011      1.154984
O        3.898593      0.594624      1.461011
H        3.541335     -1.806583      1.341918
H        0.048366     -1.922922      0.613273
H       -2.178466     -0.942209      0.591250
H       -2.330548      0.799415      0.899384
H       -3.168301      0.239800     -1.370850
H       -1.742895      1.305141     -1.480160
H       -0.311453      2.389346      0.641705
H        2.079814      2.604480      1.061713
*



