# preopt in PBE-D3

! B3LYP D3 TightSCF def2-TZVP slowconv PModel cpcm(water) opt numfreq
%pal nprocs=16 end
%geom maxiter=150 end
%elprop Polar 1 end
%base "neutral"
*xyz 0 1
  C   0.36155783373033     -0.84266425160740      0.10632195889037
  C   0.23789774949207      1.54494914410031      1.56795492142917
  C   -0.66775958904524     -0.64346920930404      1.03245414283843
  C   1.33789228613758      0.13449534941839     -0.12219042255710
  C   1.27354923055793      1.33545573968636      0.61913985026386
  C   -0.74377974909341      0.55570993215416      1.76519937912846
  O   -1.74633608161699      0.77395951834365      2.65987288391575
  O   -1.64583685641164     -1.55940566715766      1.30427441964882
  C   2.39771159183331     -0.06595773511273     -1.17750707364268
  C   3.84070900242522     -0.16168879777872     -0.67871407914250
  N   4.08022408216829     -1.39108929045118      0.12137827091675
  H   0.39077058447984     -1.78224872322530     -0.45202203861472
  H   0.12148806358757      2.50957478444296      2.06531316868932
  H   1.96677506058865      2.14900737204258      0.40055496246785
  H   -2.30411539887919     -0.02982944830508      2.69413650921312
  H   -1.51752226014466     -2.35819385962701      0.75882386211176
  H   2.36089127059371      0.77911538789538     -1.88408321066948
  H   2.16367866953878     -0.97112900210521     -1.76066765256794
  H   4.51035102303409     -0.14004189075873     -1.55368775095088
  H   4.08611217202722      0.70437545789363     -0.04353830502556
  H   5.08839418696169     -1.57220787574126      0.15233941399281
  H   3.67193533651437     -2.19592274367158     -0.36519864345271
  Cu  3.55686032453669     -1.31765653842503      2.10124081602754
  Cu  2.07919482733419     -1.35114682912646      4.05258418907129
  Cu  3.80643232372844     -2.99307831790315      4.02716385687743
  Cu  4.70824845069464     -0.81266816403527      4.27997858946784
  Cu  1.85648795280153      0.56388092910702      2.63090654613730
  Cu  4.28297988557985      1.02222984489070      2.86797200493982
  Cu  2.90634885631299      0.70936965027381      4.92704028900434
  Cu  3.32100948853193     -1.40319465091311      6.15135939559137
*


$new_job

! B3LYP D3 TightSCF def2-TZVP slowconv PModel cpcm(water) opt numfreq
%pal nprocs=16 end
%geom maxiter=150 end
%elprop Polar 1 end
%base "protonated"
*xyz 1 1
  C   0.59006536615162      1.88958081085873     -1.15885693195252
  C   0.07690497711520     -0.59960691515894      0.03313347790817
  C   1.51193493795089      0.83977255746799     -1.30312180968546
  C   -0.60167473065884      1.68235947818359     -0.41210112276620
  C   -0.85750703265074      0.43358145242845      0.19179852204071
  C   1.24474555808082     -0.41252058014529     -0.70874319424383
  O   2.68249897780722      0.92863257816087     -1.99400623305554
  O   2.11984399735345     -1.44432669477252     -0.85262721319378
  C   -2.11058131451040      0.21422511064677      1.00442552126707
  C   -3.07803815162260     -0.81885347854158      0.43260455372876
  N   -3.73035939959344     -0.33973600154006     -0.82798139579581
  H   -3.04309465549307     -0.19203472327305     -1.62098636828179
  H   -4.42260527793141     -1.01996487060112     -1.17021359376708
  H   -4.21933337398051      0.55501417129122     -0.68559566162080
  H   0.83958558758068      2.88053063766030     -1.54381438605796
  H   -0.09589689069828     -1.57857271589907      0.48495322601414
  H   -1.27258832612774      2.52341173380186     -0.23000101834351
  H   2.77562413711380      1.81645643198247     -2.38947912088803
  H   2.87081545667896     -1.13588347902046     -1.39992401084669
  H   -2.64009160353587      1.16983776060021      1.14015206737888
  H   -1.83848758265996     -0.14314472077446      2.01000671377776
  H   -2.57287047875257     -1.76165453967691      0.18714824258959
  H   -3.88301376561922     -1.02677658868949      1.14747985177381
  Cu  -2.93702016349293      0.95384996665685     -3.92932389359831
  Cu  -1.64532012699973     -1.04557521880294     -3.57083261395142
  Cu  -3.45425325637195     -0.95783619389104     -5.29312923710250
  Cu  -2.06667703631039      0.85373963618483     -6.20774972472767
  Cu  -0.96205511756043      1.11606145655069     -2.51081948088202
  Cu  -1.29772340971378      2.58463596388572     -4.63555326307141
  Cu  -0.14509614141235      0.45512822212734     -4.73280594249919
  Cu  -1.08813360613629     -1.39409963970099     -5.96350503514720
*


$new_job

! B3LYP D3 TightSCF def2-TZVP slowconv PModel cpcm(water) opt numfreq
%pal nprocs=16 end
%geom maxiter=150 end
%elprop Polar 1 end
%base "deprotonated"
*xyz -1 1
  O   -0.01466628551165     -3.05498166444095     -1.58058669348403
  O   1.61359259492255     -1.36231466601792     -2.65484283292418
  N   -4.40707727122392      0.75322987741986     -0.13270088155237
  C   -2.24851028369075      0.45760545396882      1.11311067475783
  C   -1.27588690526608      0.02397305332553      0.04180466512635
  C   -3.70182430069081      0.00842652842616      0.94229614886481
  C   -1.14031598635756     -1.34525729541778     -0.29552673229297
  C   -0.42368484809317      0.94834311463936     -0.58617677675490
  C   -0.19812941366389     -1.75285982888227     -1.22374395969170
  C   0.56260723661921      0.54122957721463     -1.54421292599845
  C   0.73083333335523     -0.84358935447647     -1.87070948923250
  H   -2.22154441293338      1.55549842390289      1.20825872510218
  H   -1.91238344188881      0.05911879177876      2.08679887646942
  H   -4.23005641978918      0.14329040346078      1.90092936381165
  H   -3.74665823314676     -1.06028563002304      0.68911424752782
  H   -1.78108986757908     -2.09500221432680      0.17628087949325
  H   -0.47211080341782      1.99984500361371     -0.29332847355450
  H   1.29127068707250      1.26457203364103     -1.91892250572042
  H   -4.43750393181562      1.74729484634629      0.11795439497443
  H   -5.38534634202694      0.44868433111514     -0.15881567249286
  H   0.75563455094729     -2.95620571027094     -2.21795884584217
  Cu  -3.72382797010915      0.63750788871075     -2.04898573502042
  Cu  -2.86588770387947      1.91802759345983     -3.96840183984259
  Cu  -1.21430682249431      0.74331405136939     -2.66798626921073
  Cu  -2.73541897933061     -0.63629473874176     -3.92940575569642
  Cu  -5.21389829007265      1.74354613837011     -3.87687373087226
  Cu  -5.08191021513223     -0.69379638627880     -3.82311887310229
  Cu  -3.96908444566077      0.55070818159949     -5.69044988123857
  Cu  -1.51090941814197      0.67731175651420     -5.51308686560324
*

$new_job

! B3LYP D3 TightSCF def2-TZVP slowconv PModel cpcm(water) opt numfreq
%pal nprocs=16 end
%geom maxiter=150 end
%elprop Polar 1 end
%base "2x_deprotonated"
*xyz -2 1
  O   -0.98241636268846     -1.66681015704679     -1.96208609003687
  O   -1.28858903263868      0.89673930609653     -3.16411066806965
  N   3.64596639378742     -1.80039772203556      0.21777823671767
  C   2.37562624147098      0.14433523970281      1.15497777016429
  C   1.46167415283169      0.33480709000490     -0.02951347149356
  C   3.75118570429437     -0.45563381261748      0.83924441879430
  C   0.54681742632226     -0.67426557132474     -0.39731440022426
  C   1.52530026200654      1.48722678389788     -0.83302177778368
  C   -0.29124004450545     -0.60302405286992     -1.54207951361204
  C   0.62825970278114      1.65084056847942     -1.93558673951791
  C   -0.39570877544806      0.69097857094737     -2.27043430175093
  H   2.55730895735207      1.11069603589772      1.65197596634643
  H   1.88139547252295     -0.50628735283130      1.89668578128047
  H   4.33779121773856     -0.50584328141105      1.77260690872868
  H   4.28855167641302      0.19437506816797      0.13180588403973
  H   0.51503724268966     -1.60319231811137      0.18146407282662
  H   2.20500389063636      2.30044321791280     -0.56718830813463
  H   0.60324914179323      2.60803260091939     -2.46534810686039
  H   3.00994415747458     -2.38197329271599      0.77318708023677
  H   4.55856355197708     -2.26328241130543      0.26549241644318
  Cu  3.18978607263208     -1.80742164974967     -1.79457712863978
  Cu  4.10733968450870     -0.57781163059521     -3.73196320731418
  Cu  5.00907124408729     -2.76831029222784     -3.40001363348257
  Cu  2.69119280196541     -2.96175519261198     -3.91090559440847
  Cu  2.17119343180020      0.38214454216884     -2.71947136145776
  Cu  0.81810308205075     -1.87069765666600     -2.95824865983268
  Cu  2.03438190437168     -0.87775098391444     -4.91067058857149
  Cu  4.07178281177240     -2.04867970716080     -5.68312357538713
*

$new_job

! B3LYP D3 TightSCF def2-TZVP slowconv PModel cpcm(water) opt numfreq
%pal nprocs=16 end
%geom maxiter=150 end
%elprop Polar 1 end
%base "zwitterione"
*xyz 0 1
  O   3.12774142577740     -0.20024893892754      1.45208012248391
  C   2.08508976764879      0.33471824219850      0.76316711085260
  C   0.92768914302146     -0.36511469343791      0.46464700317490
  C   -0.10998493946728      0.25034480045723     -0.27805749930215
  C   -1.35280597358329     -0.52647084487246     -0.63519614696333
  C   -2.41816681607009     -0.60339105288896      0.45798503761272
  N   -3.02760938433859      0.73524250407457      0.73439459341440
  H   -3.82054520145845      0.65773723710012      1.38537900993765
  H   -2.32716840559853      1.37165745966841      1.21216419095065
  H   -3.36142646539527      1.19436892943410     -0.12383703949623
  C   0.05114068753717      1.58892839347068     -0.67389299284960
  C   1.23442133226142      2.33004449411500     -0.35426611334131
  C   2.31802746993277      1.70455599102447      0.34228274965682
  O   3.46368684571980      2.21932139789053      0.63121353448252
  H   3.76344189697308      0.57927247939403      1.44090929513447
  H   0.82504117870624     -1.40371315190768      0.79031250341085
  H   -1.81071648706239     -0.10456924510510     -1.54485162291877
  H   -1.08514873325356     -1.56854710752468     -0.87024097393344
  H   -3.23325018273556     -1.27493633158161      0.16243156805791
  H   -1.99325108370320     -0.94626955413233      1.41327462037956
  H   -0.71377364306375      2.05770473382687     -1.29800786233978
  H   1.38564785996654      3.32619446333592     -0.77682312997887
  Cu  -1.74760940200189      2.95035327171503      2.98541909047371
  Cu  -0.80351700203422      3.64374276669397      5.13054046266731
  Cu  -2.28965966495140      1.68564209522196      4.92763389696710
  Cu  -0.62220696538102      0.82607067785432      3.22140468120863
  Cu  -0.10030572831270      4.68431442213606      2.97749922052795
  Cu  0.00422807662972      2.51865732504754      1.37629379241650
  Cu  0.90964401766427      2.63770907708662      3.67625062739603
  Cu  0.10400592557263      1.37362642063218      5.53681527491710
*
