! PBE D3 def2-TZVP opt numfreq PModel NOAUTOSTART cpcm(water)
%pal nprocs=16 end
%geom maxiter=150 end
%base "neutral"
*xyz 0 1
  C   0.22372926409855     -0.88114566249646     -0.60842035228000
  C   -1.07068283945135      1.48509097161799      0.10701382551464
  C   -1.04669652735943     -0.93277701118718     -0.03180557247982
  C   0.88602002497324      0.34583502720657     -0.78884885331771
  C   0.22224013362563      1.52375099642693     -0.42986456262950
  C   -1.70181130192503      0.26035147758650      0.32899761948308
  O   -2.93726661712403      0.20567103009847      0.90144268380485
  O   -1.70147654350721     -2.10193970120121      0.24170868867634
  C   2.34540851225664      0.31703136789894     -1.16251030696899
  C   3.24411476175161      0.51923546518566      0.07418057404254
  N   2.70369253444391     -0.17919124767805      1.27796576697750
  H   0.67833857472346     -1.81372026024812     -0.95480442539235
  H   -1.59348449376626      2.40125217870293      0.38444219367742
  H   0.71399136003223      2.49004008077532     -0.56561754550002
  H   -3.13769173549268     -0.74710122492178      1.01244366924886
  H   -1.00636296992359     -2.77608126232985      0.51310214972503
  H   2.59988533374305      1.09399262728196     -1.89987702794573
  H   2.57923699887465     -0.65691823765903     -1.61818417315540
  H   4.25136466509747      0.12534735435386     -0.11918901287379
  H   3.33977867682062      1.59573904260316      0.29257456002750
  H   1.91029584067807      0.37036275782101      1.63048200218553
  H   3.41275916776129     -0.16811667603640      2.01637272399704
  Cu  0.70720969885825     -4.00147875551313      1.36992038096897
  Cu  1.82338081453584     -1.99156558839509      1.17653719948201
*


$new_job

! PBE D3 def2-TZVP opt numfreq PModel NOAUTOSTART cpcm(water)
%pal nprocs=16 end
%geom maxiter=150 end
%base "protonated"
*xyz 1 1
  C   0.95730154716961      1.50630612676510     -0.68016361291017
  C   0.04524174398219     -0.76040063067918      0.70741026574030
  C   1.79144137783349      0.38265823398781     -0.54450604797491
  C   -0.34623389964022      1.49381415794017     -0.10275029270652
  C   -0.80711600058864      0.34404399302199      0.57872180280197
  C   1.33182720695359     -0.75707216421891      0.16105031582488
  O   3.06213214203982      0.29015201386610     -1.01530396903929
  O   2.12264980628525     -1.83503601880566      0.32391070095347
  C   -2.20700178319140      0.29127313032854      1.14228527068865
  C   -3.15518957150332     -0.64210954476284      0.38599032458464
  N   -3.46627848672009     -0.14156929111284     -0.99789458889615
  H   -2.58760905199411     -0.13247929679990     -1.67750370489943
  H   -4.16792805290246     -0.73591740386438     -1.46067366021811
  H   -3.83365567782592      0.81999745855840     -0.98003825928273
  H   1.35090577170108      2.42602359061310     -1.11929909811235
  H   -0.27092961514871     -1.65583378614863      1.24620242157968
  H   -0.93616957935508      2.41207142802774     -0.09985450223317
  H   3.33894165802556      1.11421543000745     -1.45464678802582
  H   2.98725818211501     -1.66150756720834     -0.10065857518988
  H   -2.63895912393897      1.30394736824241      1.18710301584645
  H   -2.17959924335323     -0.07417228928210      2.18065701328879
  H   -2.71503917087669     -1.64032919125932      0.26051883263151
  H   -4.10879279914801     -0.74447701621204      0.92041427935637
  Cu  -0.50353730697855      0.61816643382463     -2.02415612651504
  Cu  -1.59538463955308     -0.52315008682230     -3.67249660205010
*


$new_job

! PBE D3 def2-TZVP opt numfreq PModel NOAUTOSTART cpcm(water)
%pal nprocs=16 end
%geom maxiter=150 end
%base "deprotonated"
*xyz -1 1
  O   2.31367888509979     -1.87494859519095     -0.31939967541267
  O   3.28514698170801      0.45515129967641     -0.39793904522743
  N   -2.76893783759014      0.63377356601621     -1.16768647622960
  C   -2.13651651900659     -0.19267632876612      1.11154863905808
  C   -0.68104749592571      0.00723505738565      0.78462908876301
  C   -2.98498118540229     -0.43240239639086     -0.14892072748734
  C   0.13026214782716     -1.10070587183036      0.42111568813508
  C   -0.11814159482424      1.28922919046171      0.73404483147465
  C   1.44089050102791     -0.89511951795389      0.03528262350433
  C   1.21319334976892      1.50778339451256      0.34074820756348
  C   2.05039007135417      0.42534455645782     -0.02598477339793
  H   -2.52656517326151      0.69871595609085      1.63559565876510
  H   -2.29092520677877     -1.05171113819204      1.79015998096071
  H   -4.06167153163019     -0.47593045596085      0.07771771561750
  H   -2.70290229867100     -1.38535111014386     -0.61779915879917
  H   -0.27326439612200     -2.11856489326121      0.45206853762963
  H   -0.73568133201055      2.14680384840980      1.02793972686275
  H   1.62884879046966      2.51868050942688      0.32450210224987
  H   -1.75006212946712      0.66738540356326     -1.33183376986665
  H   -2.96798550714596      1.53889008371802     -0.72341302343087
  H   3.11494997451803     -1.26840645421640     -0.50820901947766
  Cu  -5.20988886306249      0.34114440192749     -4.66767286446111
  Cu  -3.85588801073803      0.50178862020689     -2.81520951812176
*

$new_job

! PBE D3 def2-TZVP opt numfreq PModel NOAUTOSTART cpcm(water)
%pal nprocs=16 end
%geom maxiter=150 end
%base "2x_deprotonated"
*xyz -2 1
  O   2.46814301741140     -2.01044980552581      0.30338684813901
  O   3.45834451640272      0.61946037522922     -0.12094796142498
  N   -2.88174351721716      0.74958439685763     -1.19919465663097
  C   -2.06412789312340     -0.26199986362857      0.95655640970756
  C   -0.60257450364842     -0.03754576853318      0.66421447874941
  C   -2.92856982750816     -0.43930024096597     -0.29653150858661
  C   0.28949283951553     -1.11810551344438      0.60758273361744
  C   -0.09676793123113      1.26778451818401      0.45450297814254
  C   1.69786888692748     -1.00270065180052      0.33496543142243
  C   1.25990413971976      1.46746815303204      0.18140642123956
  C   2.22759911560959      0.40489154809024      0.10221651515146
  H   -2.47592431448900      0.59574985934956      1.52832163355743
  H   -2.19505567264087     -1.15836145380661      1.59407773454862
  H   -3.98906366374209     -0.61348343630916     -0.04115148765753
  H   -2.57784430343216     -1.30163469928875     -0.88176501290674
  H   -0.08118116457120     -2.13768724545740      0.78165268287705
  H   -0.76809731779379      2.12931210961683      0.56809365274481
  H   1.65140790176950      2.48217880220519      0.03942421719397
  H   -1.89605021118925      0.86023677103263     -1.49078221278413
  H   -3.05061130325295      1.58348300667123     -0.61677935193135
  Cu  -6.03249131214932      0.88001248278352     -4.27769256561310
  Cu  -4.33266079603200      0.79556709139330     -2.63081167212686
*


$new_job

! PBE D3 def2-TZVP opt numfreq PModel NOAUTOSTART cpcm(water)
%pal nprocs=16 end
%geom maxiter=150 end
%base "zwitterione"
*xyz 0 1
  O   1.83878337198344     -2.56034111317584      1.18367772007034
  C   1.33751811840745     -1.35077927265182      0.88937039543071
  C   -0.01394748466121     -1.05491536555942      0.84118469846555
  C   -0.45066743108311      0.27708767591970      0.56887966132016
  C   -1.89898367429902      0.55005821427295      0.25880606233105
  C   -2.43052154600409     -0.32760688285182     -0.90524067392657
  N   -1.31007925720513     -0.78002399153633     -1.79357271155264
  H   -1.62289433753759     -1.43372127582651     -2.52039462093592
  H   -0.74868381070685      0.01358900084713     -2.29000830993706
  H   -0.58823683175049     -1.23553968323077     -1.18704835460400
  C   0.50876766088723      1.27585001977672      0.37520201667347
  C   1.92202211207620      0.99676846683525      0.41528832726441
  C   2.38555723510625     -0.33587861952311      0.70488751104086
  O   3.57670632500956     -0.73043411349966      0.85623371944873
  H   2.82831960659905     -2.34100551271862      1.16477134586094
  H   -0.73952634324377     -1.84468215500076      1.06724589039501
  H   -2.55825131046764      0.36529579041255      1.12354604649062
  H   -2.00914583394304      1.60980459114627     -0.00840842129013
  H   -2.91015927737841     -1.23981505134623     -0.52652539897910
  H   -3.15712113583558      0.20966533622889     -1.52820121542070
  H   0.17612369965784      2.31086151677732      0.25240820049558
  H   2.64276905284969      1.81667467222596      0.47828225876683
  Cu  0.58860163395956      0.94118045644528     -3.76153282551949
  Cu  1.38115087934666      0.92629332340489     -1.58802234245863
*
